LAMMPS data file. CGCMM style. atom_style full generated by VMD/TopoTools v1.8 on Sat Dec 24 03:03:21 EST 2022
 1368 atoms
 1932 bonds
 48 angles
 0 dihedrals
 0 impropers
 3 atom types
 2 bond types
 1 angle types
 0 dihedral types
 0 improper types
 -50.000000 50.000000  xlo xhi
 -50.000000 50.000000  ylo yhi
 0.000000 125.257996  zlo zhi

# Pair Coeffs
#
# 1  C
# 2  H
# 3  O

# Bond Coeffs
#
# 1  

 Masses

 1 12.010700 # C
 2 1.008000 # H
 3 15.999000 # O

 Atoms # full

1 1 1 0.000000 4.078000 0.000000 0.000000 # C CNT
2 2 1 0.000000 3.832000 1.395000 0.000000 # C CNT
3 3 1 0.000000 3.531000 2.039000 1.228000 # C CNT
4 4 1 0.000000 2.621000 3.124000 1.228000 # C CNT
5 5 1 0.000000 2.039000 3.531000 0.000000 # C CNT
6 6 1 0.000000 0.708000 4.016000 0.000000 # C CNT
7 7 1 0.000000 0.000000 4.078000 1.228000 # C CNT
8 8 1 0.000000 -1.395000 3.832000 1.228000 # C CNT
9 9 1 0.000000 -2.039000 3.531000 0.000000 # C CNT
10 10 1 0.000000 -3.124000 2.621000 0.000000 # C CNT
11 11 1 0.000000 -3.531000 2.039000 1.228000 # C CNT
12 12 1 0.000000 -4.016000 0.708000 1.228000 # C CNT
13 13 1 0.000000 -4.078000 0.000000 0.000000 # C CNT
14 14 1 0.000000 -3.832000 -1.395000 0.000000 # C CNT
15 15 1 0.000000 -3.531000 -2.039000 1.228000 # C CNT
16 16 1 0.000000 -2.621000 -3.124000 1.228000 # C CNT
17 17 1 0.000000 -2.039000 -3.531000 0.000000 # C CNT
18 18 1 0.000000 -0.708000 -4.016000 0.000000 # C CNT
19 19 1 0.000000 0.000000 -4.078000 1.228000 # C CNT
20 20 1 0.000000 1.395000 -3.832000 1.228000 # C CNT
21 21 1 0.000000 2.039000 -3.531000 0.000000 # C CNT
22 22 1 0.000000 3.124000 -2.621000 0.000000 # C CNT
23 23 1 0.000000 3.531000 -2.039000 1.228000 # C CNT
24 24 1 0.000000 4.016000 -0.708000 1.228000 # C CNT
25 25 1 0.000000 4.078000 0.000000 2.456000 # C CNT
26 26 1 0.000000 3.832000 1.395000 2.456000 # C CNT
27 27 1 0.000000 3.531000 2.039000 3.684000 # C CNT
28 28 1 0.000000 2.621000 3.124000 3.684000 # C CNT
29 29 1 0.000000 2.039000 3.531000 2.456000 # C CNT
30 30 1 0.000000 0.708000 4.016000 2.456000 # C CNT
31 31 1 0.000000 0.000000 4.078000 3.684000 # C CNT
32 32 1 0.000000 -1.395000 3.832000 3.684000 # C CNT
33 33 1 0.000000 -2.039000 3.531000 2.456000 # C CNT
34 34 1 0.000000 -3.124000 2.621000 2.456000 # C CNT
35 35 1 0.000000 -3.531000 2.039000 3.684000 # C CNT
36 36 1 0.000000 -4.016000 0.708000 3.684000 # C CNT
37 37 1 0.000000 -4.078000 0.000000 2.456000 # C CNT
38 38 1 0.000000 -3.832000 -1.395000 2.456000 # C CNT
39 39 1 0.000000 -3.531000 -2.039000 3.684000 # C CNT
40 40 1 0.000000 -2.621000 -3.124000 3.684000 # C CNT
41 41 1 0.000000 -2.039000 -3.531000 2.456000 # C CNT
42 42 1 0.000000 -0.708000 -4.016000 2.456000 # C CNT
43 43 1 0.000000 0.000000 -4.078000 3.684000 # C CNT
44 44 1 0.000000 1.395000 -3.832000 3.684000 # C CNT
45 45 1 0.000000 2.039000 -3.531000 2.456000 # C CNT
46 46 1 0.000000 3.124000 -2.621000 2.456000 # C CNT
47 47 1 0.000000 3.531000 -2.039000 3.684000 # C CNT
48 48 1 0.000000 4.016000 -0.708000 3.684000 # C CNT
49 49 1 0.000000 4.078000 0.000000 4.912000 # C CNT
50 50 1 0.000000 3.832000 1.395000 4.912000 # C CNT
51 51 1 0.000000 3.531000 2.039000 6.140000 # C CNT
52 52 1 0.000000 2.621000 3.124000 6.140000 # C CNT
53 53 1 0.000000 2.039000 3.531000 4.912000 # C CNT
54 54 1 0.000000 0.708000 4.016000 4.912000 # C CNT
55 55 1 0.000000 0.000000 4.078000 6.140000 # C CNT
56 56 1 0.000000 -1.395000 3.832000 6.140000 # C CNT
57 57 1 0.000000 -2.039000 3.531000 4.912000 # C CNT
58 58 1 0.000000 -3.124000 2.621000 4.912000 # C CNT
59 59 1 0.000000 -3.531000 2.039000 6.140000 # C CNT
60 60 1 0.000000 -4.016000 0.708000 6.140000 # C CNT
61 61 1 0.000000 -4.078000 0.000000 4.912000 # C CNT
62 62 1 0.000000 -3.832000 -1.395000 4.912000 # C CNT
63 63 1 0.000000 -3.531000 -2.039000 6.140000 # C CNT
64 64 1 0.000000 -2.621000 -3.124000 6.140000 # C CNT
65 65 1 0.000000 -2.039000 -3.531000 4.912000 # C CNT
66 66 1 0.000000 -0.708000 -4.016000 4.912000 # C CNT
67 67 1 0.000000 0.000000 -4.078000 6.140000 # C CNT
68 68 1 0.000000 1.395000 -3.832000 6.140000 # C CNT
69 69 1 0.000000 2.039000 -3.531000 4.912000 # C CNT
70 70 1 0.000000 3.124000 -2.621000 4.912000 # C CNT
71 71 1 0.000000 3.531000 -2.039000 6.140000 # C CNT
72 72 1 0.000000 4.016000 -0.708000 6.140000 # C CNT
73 73 1 0.000000 4.078000 0.000000 7.368000 # C CNT
74 74 1 0.000000 3.832000 1.395000 7.368000 # C CNT
75 75 1 0.000000 3.531000 2.039000 8.596000 # C CNT
76 76 1 0.000000 2.621000 3.124000 8.596000 # C CNT
77 77 1 0.000000 2.039000 3.531000 7.368000 # C CNT
78 78 1 0.000000 0.708000 4.016000 7.368000 # C CNT
79 79 1 0.000000 0.000000 4.078000 8.596000 # C CNT
80 80 1 0.000000 -1.395000 3.832000 8.596000 # C CNT
81 81 1 0.000000 -2.039000 3.531000 7.368000 # C CNT
82 82 1 0.000000 -3.124000 2.621000 7.368000 # C CNT
83 83 1 0.000000 -3.531000 2.039000 8.596000 # C CNT
84 84 1 0.000000 -4.016000 0.708000 8.596000 # C CNT
85 85 1 0.000000 -4.078000 0.000000 7.368000 # C CNT
86 86 1 0.000000 -3.832000 -1.395000 7.368000 # C CNT
87 87 1 0.000000 -3.531000 -2.039000 8.596000 # C CNT
88 88 1 0.000000 -2.621000 -3.124000 8.596000 # C CNT
89 89 1 0.000000 -2.039000 -3.531000 7.368000 # C CNT
90 90 1 0.000000 -0.708000 -4.016000 7.368000 # C CNT
91 91 1 0.000000 0.000000 -4.078000 8.596000 # C CNT
92 92 1 0.000000 1.395000 -3.832000 8.596000 # C CNT
93 93 1 0.000000 2.039000 -3.531000 7.368000 # C CNT
94 94 1 0.000000 3.124000 -2.621000 7.368000 # C CNT
95 95 1 0.000000 3.531000 -2.039000 8.596000 # C CNT
96 96 1 0.000000 4.016000 -0.708000 8.596000 # C CNT
97 97 1 0.000000 4.078000 0.000000 9.824000 # C CNT
98 98 1 0.000000 3.832000 1.395000 9.824000 # C CNT
99 99 1 0.000000 3.531000 2.039000 11.052000 # C CNT
100 100 1 0.000000 2.621000 3.124000 11.052000 # C CNT
101 101 1 0.000000 2.039000 3.531000 9.824000 # C CNT
102 102 1 0.000000 0.708000 4.016000 9.824000 # C CNT
103 103 1 0.000000 0.000000 4.078000 11.052000 # C CNT
104 104 1 0.000000 -1.395000 3.832000 11.052000 # C CNT
105 105 1 0.000000 -2.039000 3.531000 9.824000 # C CNT
106 106 1 0.000000 -3.124000 2.621000 9.824000 # C CNT
107 107 1 0.000000 -3.531000 2.039000 11.052000 # C CNT
108 108 1 0.000000 -4.016000 0.708000 11.052000 # C CNT
109 109 1 0.000000 -4.078000 0.000000 9.824000 # C CNT
110 110 1 0.000000 -3.832000 -1.395000 9.824000 # C CNT
111 111 1 0.000000 -3.531000 -2.039000 11.052000 # C CNT
112 112 1 0.000000 -2.621000 -3.124000 11.052000 # C CNT
113 113 1 0.000000 -2.039000 -3.531000 9.824000 # C CNT
114 114 1 0.000000 -0.708000 -4.016000 9.824000 # C CNT
115 115 1 0.000000 0.000000 -4.078000 11.052000 # C CNT
116 116 1 0.000000 1.395000 -3.832000 11.052000 # C CNT
117 117 1 0.000000 2.039000 -3.531000 9.824000 # C CNT
118 118 1 0.000000 3.124000 -2.621000 9.824000 # C CNT
119 119 1 0.000000 3.531000 -2.039000 11.052000 # C CNT
120 120 1 0.000000 4.016000 -0.708000 11.052000 # C CNT
121 121 1 0.000000 4.078000 0.000000 12.280000 # C CNT
122 122 1 0.000000 3.832000 1.395000 12.280000 # C CNT
123 123 1 0.000000 3.531000 2.039000 13.508000 # C CNT
124 124 1 0.000000 2.621000 3.124000 13.508000 # C CNT
125 125 1 0.000000 2.039000 3.531000 12.280000 # C CNT
126 126 1 0.000000 0.708000 4.016000 12.280000 # C CNT
127 127 1 0.000000 0.000000 4.078000 13.508000 # C CNT
128 128 1 0.000000 -1.395000 3.832000 13.508000 # C CNT
129 129 1 0.000000 -2.039000 3.531000 12.280000 # C CNT
130 130 1 0.000000 -3.124000 2.621000 12.280000 # C CNT
131 131 1 0.000000 -3.531000 2.039000 13.508000 # C CNT
132 132 1 0.000000 -4.016000 0.708000 13.508000 # C CNT
133 133 1 0.000000 -4.078000 0.000000 12.280000 # C CNT
134 134 1 0.000000 -3.832000 -1.395000 12.280000 # C CNT
135 135 1 0.000000 -3.531000 -2.039000 13.508000 # C CNT
136 136 1 0.000000 -2.621000 -3.124000 13.508000 # C CNT
137 137 1 0.000000 -2.039000 -3.531000 12.280000 # C CNT
138 138 1 0.000000 -0.708000 -4.016000 12.280000 # C CNT
139 139 1 0.000000 0.000000 -4.078000 13.508000 # C CNT
140 140 1 0.000000 1.395000 -3.832000 13.508000 # C CNT
141 141 1 0.000000 2.039000 -3.531000 12.280000 # C CNT
142 142 1 0.000000 3.124000 -2.621000 12.280000 # C CNT
143 143 1 0.000000 3.531000 -2.039000 13.508000 # C CNT
144 144 1 0.000000 4.016000 -0.708000 13.508000 # C CNT
145 145 1 0.000000 4.078000 0.000000 14.736000 # C CNT
146 146 1 0.000000 3.832000 1.395000 14.736000 # C CNT
147 147 1 0.000000 3.531000 2.039000 15.964000 # C CNT
148 148 1 0.000000 2.621000 3.124000 15.964000 # C CNT
149 149 1 0.000000 2.039000 3.531000 14.736000 # C CNT
150 150 1 0.000000 0.708000 4.016000 14.736000 # C CNT
151 151 1 0.000000 0.000000 4.078000 15.964000 # C CNT
152 152 1 0.000000 -1.395000 3.832000 15.964000 # C CNT
153 153 1 0.000000 -2.039000 3.531000 14.736000 # C CNT
154 154 1 0.000000 -3.124000 2.621000 14.736000 # C CNT
155 155 1 0.000000 -3.531000 2.039000 15.964000 # C CNT
156 156 1 0.000000 -4.016000 0.708000 15.964000 # C CNT
157 157 1 0.000000 -4.078000 0.000000 14.736000 # C CNT
158 158 1 0.000000 -3.832000 -1.395000 14.736000 # C CNT
159 159 1 0.000000 -3.531000 -2.039000 15.964000 # C CNT
160 160 1 0.000000 -2.621000 -3.124000 15.964000 # C CNT
161 161 1 0.000000 -2.039000 -3.531000 14.736000 # C CNT
162 162 1 0.000000 -0.708000 -4.016000 14.736000 # C CNT
163 163 1 0.000000 0.000000 -4.078000 15.964000 # C CNT
164 164 1 0.000000 1.395000 -3.832000 15.964000 # C CNT
165 165 1 0.000000 2.039000 -3.531000 14.736000 # C CNT
166 166 1 0.000000 3.124000 -2.621000 14.736000 # C CNT
167 167 1 0.000000 3.531000 -2.039000 15.964000 # C CNT
168 168 1 0.000000 4.016000 -0.708000 15.964000 # C CNT
169 169 1 0.000000 4.078000 0.000000 17.191999 # C CNT
170 170 1 0.000000 3.832000 1.395000 17.191999 # C CNT
171 171 1 0.000000 3.531000 2.039000 18.420000 # C CNT
172 172 1 0.000000 2.621000 3.124000 18.420000 # C CNT
173 173 1 0.000000 2.039000 3.531000 17.191999 # C CNT
174 174 1 0.000000 0.708000 4.016000 17.191999 # C CNT
175 175 1 0.000000 0.000000 4.078000 18.420000 # C CNT
176 176 1 0.000000 -1.395000 3.832000 18.420000 # C CNT
177 177 1 0.000000 -2.039000 3.531000 17.191999 # C CNT
178 178 1 0.000000 -3.124000 2.621000 17.191999 # C CNT
179 179 1 0.000000 -3.531000 2.039000 18.420000 # C CNT
180 180 1 0.000000 -4.016000 0.708000 18.420000 # C CNT
181 181 1 0.000000 -4.078000 0.000000 17.191999 # C CNT
182 182 1 0.000000 -3.832000 -1.395000 17.191999 # C CNT
183 183 1 0.000000 -3.531000 -2.039000 18.420000 # C CNT
184 184 1 0.000000 -2.621000 -3.124000 18.420000 # C CNT
185 185 1 0.000000 -2.039000 -3.531000 17.191999 # C CNT
186 186 1 0.000000 -0.708000 -4.016000 17.191999 # C CNT
187 187 1 0.000000 0.000000 -4.078000 18.420000 # C CNT
188 188 1 0.000000 1.395000 -3.832000 18.420000 # C CNT
189 189 1 0.000000 2.039000 -3.531000 17.191999 # C CNT
190 190 1 0.000000 3.124000 -2.621000 17.191999 # C CNT
191 191 1 0.000000 3.531000 -2.039000 18.420000 # C CNT
192 192 1 0.000000 4.016000 -0.708000 18.420000 # C CNT
193 193 1 0.000000 4.078000 0.000000 19.648001 # C CNT
194 194 1 0.000000 3.832000 1.395000 19.648001 # C CNT
195 195 1 0.000000 3.531000 2.039000 20.875999 # C CNT
196 196 1 0.000000 2.621000 3.124000 20.875999 # C CNT
197 197 1 0.000000 2.039000 3.531000 19.648001 # C CNT
198 198 1 0.000000 0.708000 4.016000 19.648001 # C CNT
199 199 1 0.000000 0.000000 4.078000 20.875999 # C CNT
200 200 1 0.000000 -1.395000 3.832000 20.875999 # C CNT
201 201 1 0.000000 -2.039000 3.531000 19.648001 # C CNT
202 202 1 0.000000 -3.124000 2.621000 19.648001 # C CNT
203 203 1 0.000000 -3.531000 2.039000 20.875999 # C CNT
204 204 1 0.000000 -4.016000 0.708000 20.875999 # C CNT
205 205 1 0.000000 -4.078000 0.000000 19.648001 # C CNT
206 206 1 0.000000 -3.832000 -1.395000 19.648001 # C CNT
207 207 1 0.000000 -3.531000 -2.039000 20.875999 # C CNT
208 208 1 0.000000 -2.621000 -3.124000 20.875999 # C CNT
209 209 1 0.000000 -2.039000 -3.531000 19.648001 # C CNT
210 210 1 0.000000 -0.708000 -4.016000 19.648001 # C CNT
211 211 1 0.000000 0.000000 -4.078000 20.875999 # C CNT
212 212 1 0.000000 1.395000 -3.832000 20.875999 # C CNT
213 213 1 0.000000 2.039000 -3.531000 19.648001 # C CNT
214 214 1 0.000000 3.124000 -2.621000 19.648001 # C CNT
215 215 1 0.000000 3.531000 -2.039000 20.875999 # C CNT
216 216 1 0.000000 4.016000 -0.708000 20.875999 # C CNT
217 217 1 0.000000 4.078000 0.000000 22.104000 # C CNT
218 218 1 0.000000 3.832000 1.395000 22.104000 # C CNT
219 219 1 0.000000 3.531000 2.039000 23.332001 # C CNT
220 220 1 0.000000 2.621000 3.124000 23.332001 # C CNT
221 221 1 0.000000 2.039000 3.531000 22.104000 # C CNT
222 222 1 0.000000 0.708000 4.016000 22.104000 # C CNT
223 223 1 0.000000 0.000000 4.078000 23.332001 # C CNT
224 224 1 0.000000 -1.395000 3.832000 23.332001 # C CNT
225 225 1 0.000000 -2.039000 3.531000 22.104000 # C CNT
226 226 1 0.000000 -3.124000 2.621000 22.104000 # C CNT
227 227 1 0.000000 -3.531000 2.039000 23.332001 # C CNT
228 228 1 0.000000 -4.016000 0.708000 23.332001 # C CNT
229 229 1 0.000000 -4.078000 0.000000 22.104000 # C CNT
230 230 1 0.000000 -3.832000 -1.395000 22.104000 # C CNT
231 231 1 0.000000 -3.531000 -2.039000 23.332001 # C CNT
232 232 1 0.000000 -2.621000 -3.124000 23.332001 # C CNT
233 233 1 0.000000 -2.039000 -3.531000 22.104000 # C CNT
234 234 1 0.000000 -0.708000 -4.016000 22.104000 # C CNT
235 235 1 0.000000 0.000000 -4.078000 23.332001 # C CNT
236 236 1 0.000000 1.395000 -3.832000 23.332001 # C CNT
237 237 1 0.000000 2.039000 -3.531000 22.104000 # C CNT
238 238 1 0.000000 3.124000 -2.621000 22.104000 # C CNT
239 239 1 0.000000 3.531000 -2.039000 23.332001 # C CNT
240 240 1 0.000000 4.016000 -0.708000 23.332001 # C CNT
241 241 1 0.000000 4.078000 0.000000 24.559999 # C CNT
242 242 1 0.000000 3.832000 1.395000 24.559999 # C CNT
243 243 1 0.000000 3.531000 2.039000 25.789000 # C CNT
244 244 1 0.000000 2.621000 3.124000 25.789000 # C CNT
245 245 1 0.000000 2.039000 3.531000 24.559999 # C CNT
246 246 1 0.000000 0.708000 4.016000 24.559999 # C CNT
247 247 1 0.000000 0.000000 4.078000 25.789000 # C CNT
248 248 1 0.000000 -1.395000 3.832000 25.789000 # C CNT
249 249 1 0.000000 -2.039000 3.531000 24.559999 # C CNT
250 250 1 0.000000 -3.124000 2.621000 24.559999 # C CNT
251 251 1 0.000000 -3.531000 2.039000 25.789000 # C CNT
252 252 1 0.000000 -4.016000 0.708000 25.789000 # C CNT
253 253 1 0.000000 -4.078000 0.000000 24.559999 # C CNT
254 254 1 0.000000 -3.832000 -1.395000 24.559999 # C CNT
255 255 1 0.000000 -3.531000 -2.039000 25.789000 # C CNT
256 256 1 0.000000 -2.621000 -3.124000 25.789000 # C CNT
257 257 1 0.000000 -2.039000 -3.531000 24.559999 # C CNT
258 258 1 0.000000 -0.708000 -4.016000 24.559999 # C CNT
259 259 1 0.000000 0.000000 -4.078000 25.789000 # C CNT
260 260 1 0.000000 1.395000 -3.832000 25.789000 # C CNT
261 261 1 0.000000 2.039000 -3.531000 24.559999 # C CNT
262 262 1 0.000000 3.124000 -2.621000 24.559999 # C CNT
263 263 1 0.000000 3.531000 -2.039000 25.789000 # C CNT
264 264 1 0.000000 4.016000 -0.708000 25.789000 # C CNT
265 265 1 0.000000 4.078000 0.000000 27.017000 # C CNT
266 266 1 0.000000 3.832000 1.395000 27.017000 # C CNT
267 267 1 0.000000 3.531000 2.039000 28.245001 # C CNT
268 268 1 0.000000 2.621000 3.124000 28.245001 # C CNT
269 269 1 0.000000 2.039000 3.531000 27.017000 # C CNT
270 270 1 0.000000 0.708000 4.016000 27.017000 # C CNT
271 271 1 0.000000 0.000000 4.078000 28.245001 # C CNT
272 272 1 0.000000 -1.395000 3.832000 28.245001 # C CNT
273 273 1 0.000000 -2.039000 3.531000 27.017000 # C CNT
274 274 1 0.000000 -3.124000 2.621000 27.017000 # C CNT
275 275 1 0.000000 -3.531000 2.039000 28.245001 # C CNT
276 276 1 0.000000 -4.016000 0.708000 28.245001 # C CNT
277 277 1 0.000000 -4.078000 0.000000 27.017000 # C CNT
278 278 1 0.000000 -3.832000 -1.395000 27.017000 # C CNT
279 279 1 0.000000 -3.531000 -2.039000 28.245001 # C CNT
280 280 1 0.000000 -2.621000 -3.124000 28.245001 # C CNT
281 281 1 0.000000 -2.039000 -3.531000 27.017000 # C CNT
282 282 1 0.000000 -0.708000 -4.016000 27.017000 # C CNT
283 283 1 0.000000 0.000000 -4.078000 28.245001 # C CNT
284 284 1 0.000000 1.395000 -3.832000 28.245001 # C CNT
285 285 1 0.000000 2.039000 -3.531000 27.017000 # C CNT
286 286 1 0.000000 3.124000 -2.621000 27.017000 # C CNT
287 287 1 0.000000 3.531000 -2.039000 28.245001 # C CNT
288 288 1 0.000000 4.016000 -0.708000 28.245001 # C CNT
289 289 1 0.000000 4.078000 0.000000 29.473000 # C CNT
290 290 1 0.000000 3.832000 1.395000 29.473000 # C CNT
291 291 1 0.000000 3.531000 2.039000 30.701000 # C CNT
292 292 1 0.000000 2.621000 3.124000 30.701000 # C CNT
293 293 1 0.000000 2.039000 3.531000 29.473000 # C CNT
294 294 1 0.000000 0.708000 4.016000 29.473000 # C CNT
295 295 1 0.000000 0.000000 4.078000 30.701000 # C CNT
296 296 1 0.000000 -1.395000 3.832000 30.701000 # C CNT
297 297 1 0.000000 -2.039000 3.531000 29.473000 # C CNT
298 298 1 0.000000 -3.124000 2.621000 29.473000 # C CNT
299 299 1 0.000000 -3.531000 2.039000 30.701000 # C CNT
300 300 1 0.000000 -4.016000 0.708000 30.701000 # C CNT
301 301 1 0.000000 -4.078000 0.000000 29.473000 # C CNT
302 302 1 0.000000 -3.832000 -1.395000 29.473000 # C CNT
303 303 1 0.000000 -3.531000 -2.039000 30.701000 # C CNT
304 304 1 0.000000 -2.621000 -3.124000 30.701000 # C CNT
305 305 1 0.000000 -2.039000 -3.531000 29.473000 # C CNT
306 306 1 0.000000 -0.708000 -4.016000 29.473000 # C CNT
307 307 1 0.000000 0.000000 -4.078000 30.701000 # C CNT
308 308 1 0.000000 1.395000 -3.832000 30.701000 # C CNT
309 309 1 0.000000 2.039000 -3.531000 29.473000 # C CNT
310 310 1 0.000000 3.124000 -2.621000 29.473000 # C CNT
311 311 1 0.000000 3.531000 -2.039000 30.701000 # C CNT
312 312 1 0.000000 4.016000 -0.708000 30.701000 # C CNT
313 313 1 0.000000 4.078000 0.000000 31.929001 # C CNT
314 314 1 0.000000 3.832000 1.395000 31.929001 # C CNT
315 315 1 0.000000 3.531000 2.039000 33.157001 # C CNT
316 316 1 0.000000 2.621000 3.124000 33.157001 # C CNT
317 317 1 0.000000 2.039000 3.531000 31.929001 # C CNT
318 318 1 0.000000 0.708000 4.016000 31.929001 # C CNT
319 319 1 0.000000 0.000000 4.078000 33.157001 # C CNT
320 320 1 0.000000 -1.395000 3.832000 33.157001 # C CNT
321 321 1 0.000000 -2.039000 3.531000 31.929001 # C CNT
322 322 1 0.000000 -3.124000 2.621000 31.929001 # C CNT
323 323 1 0.000000 -3.531000 2.039000 33.157001 # C CNT
324 324 1 0.000000 -4.016000 0.708000 33.157001 # C CNT
325 325 1 0.000000 -4.078000 0.000000 31.929001 # C CNT
326 326 1 0.000000 -3.832000 -1.395000 31.929001 # C CNT
327 327 1 0.000000 -3.531000 -2.039000 33.157001 # C CNT
328 328 1 0.000000 -2.621000 -3.124000 33.157001 # C CNT
329 329 1 0.000000 -2.039000 -3.531000 31.929001 # C CNT
330 330 1 0.000000 -0.708000 -4.016000 31.929001 # C CNT
331 331 1 0.000000 0.000000 -4.078000 33.157001 # C CNT
332 332 1 0.000000 1.395000 -3.832000 33.157001 # C CNT
333 333 1 0.000000 2.039000 -3.531000 31.929001 # C CNT
334 334 1 0.000000 3.124000 -2.621000 31.929001 # C CNT
335 335 1 0.000000 3.531000 -2.039000 33.157001 # C CNT
336 336 1 0.000000 4.016000 -0.708000 33.157001 # C CNT
337 337 1 0.000000 4.078000 0.000000 34.384998 # C CNT
338 338 1 0.000000 3.832000 1.395000 34.384998 # C CNT
339 339 1 0.000000 3.531000 2.039000 35.612999 # C CNT
340 340 1 0.000000 2.621000 3.124000 35.612999 # C CNT
341 341 1 0.000000 2.039000 3.531000 34.384998 # C CNT
342 342 1 0.000000 0.708000 4.016000 34.384998 # C CNT
343 343 1 0.000000 0.000000 4.078000 35.612999 # C CNT
344 344 1 0.000000 -1.395000 3.832000 35.612999 # C CNT
345 345 1 0.000000 -2.039000 3.531000 34.384998 # C CNT
346 346 1 0.000000 -3.124000 2.621000 34.384998 # C CNT
347 347 1 0.000000 -3.531000 2.039000 35.612999 # C CNT
348 348 1 0.000000 -4.016000 0.708000 35.612999 # C CNT
349 349 1 0.000000 -4.078000 0.000000 34.384998 # C CNT
350 350 1 0.000000 -3.832000 -1.395000 34.384998 # C CNT
351 351 1 0.000000 -3.531000 -2.039000 35.612999 # C CNT
352 352 1 0.000000 -2.621000 -3.124000 35.612999 # C CNT
353 353 1 0.000000 -2.039000 -3.531000 34.384998 # C CNT
354 354 1 0.000000 -0.708000 -4.016000 34.384998 # C CNT
355 355 1 0.000000 0.000000 -4.078000 35.612999 # C CNT
356 356 1 0.000000 1.395000 -3.832000 35.612999 # C CNT
357 357 1 0.000000 2.039000 -3.531000 34.384998 # C CNT
358 358 1 0.000000 3.124000 -2.621000 34.384998 # C CNT
359 359 1 0.000000 3.531000 -2.039000 35.612999 # C CNT
360 360 1 0.000000 4.016000 -0.708000 35.612999 # C CNT
361 361 1 0.000000 4.078000 0.000000 36.841000 # C CNT
362 362 1 0.000000 3.832000 1.395000 36.841000 # C CNT
363 363 1 0.000000 3.531000 2.039000 38.069000 # C CNT
364 364 1 0.000000 2.621000 3.124000 38.069000 # C CNT
365 365 1 0.000000 2.039000 3.531000 36.841000 # C CNT
366 366 1 0.000000 0.708000 4.016000 36.841000 # C CNT
367 367 1 0.000000 0.000000 4.078000 38.069000 # C CNT
368 368 1 0.000000 -1.395000 3.832000 38.069000 # C CNT
369 369 1 0.000000 -2.039000 3.531000 36.841000 # C CNT
370 370 1 0.000000 -3.124000 2.621000 36.841000 # C CNT
371 371 1 0.000000 -3.531000 2.039000 38.069000 # C CNT
372 372 1 0.000000 -4.016000 0.708000 38.069000 # C CNT
373 373 1 0.000000 -4.078000 0.000000 36.841000 # C CNT
374 374 1 0.000000 -3.832000 -1.395000 36.841000 # C CNT
375 375 1 0.000000 -3.531000 -2.039000 38.069000 # C CNT
376 376 1 0.000000 -2.621000 -3.124000 38.069000 # C CNT
377 377 1 0.000000 -2.039000 -3.531000 36.841000 # C CNT
378 378 1 0.000000 -0.708000 -4.016000 36.841000 # C CNT
379 379 1 0.000000 0.000000 -4.078000 38.069000 # C CNT
380 380 1 0.000000 1.395000 -3.832000 38.069000 # C CNT
381 381 1 0.000000 2.039000 -3.531000 36.841000 # C CNT
382 382 1 0.000000 3.124000 -2.621000 36.841000 # C CNT
383 383 1 0.000000 3.531000 -2.039000 38.069000 # C CNT
384 384 1 0.000000 4.016000 -0.708000 38.069000 # C CNT
385 385 1 0.000000 4.078000 0.000000 39.297001 # C CNT
386 386 1 0.000000 3.832000 1.395000 39.297001 # C CNT
387 387 1 0.000000 3.531000 2.039000 40.525002 # C CNT
388 388 1 0.000000 2.621000 3.124000 40.525002 # C CNT
389 389 1 0.000000 2.039000 3.531000 39.297001 # C CNT
390 390 1 0.000000 0.708000 4.016000 39.297001 # C CNT
391 391 1 0.000000 0.000000 4.078000 40.525002 # C CNT
392 392 1 0.000000 -1.395000 3.832000 40.525002 # C CNT
393 393 1 0.000000 -2.039000 3.531000 39.297001 # C CNT
394 394 1 0.000000 -3.124000 2.621000 39.297001 # C CNT
395 395 1 0.000000 -3.531000 2.039000 40.525002 # C CNT
396 396 1 0.000000 -4.016000 0.708000 40.525002 # C CNT
397 397 1 0.000000 -4.078000 0.000000 39.297001 # C CNT
398 398 1 0.000000 -3.832000 -1.395000 39.297001 # C CNT
399 399 1 0.000000 -3.531000 -2.039000 40.525002 # C CNT
400 400 1 0.000000 -2.621000 -3.124000 40.525002 # C CNT
401 401 1 0.000000 -2.039000 -3.531000 39.297001 # C CNT
402 402 1 0.000000 -0.708000 -4.016000 39.297001 # C CNT
403 403 1 0.000000 0.000000 -4.078000 40.525002 # C CNT
404 404 1 0.000000 1.395000 -3.832000 40.525002 # C CNT
405 405 1 0.000000 2.039000 -3.531000 39.297001 # C CNT
406 406 1 0.000000 3.124000 -2.621000 39.297001 # C CNT
407 407 1 0.000000 3.531000 -2.039000 40.525002 # C CNT
408 408 1 0.000000 4.016000 -0.708000 40.525002 # C CNT
409 409 1 0.000000 4.078000 0.000000 41.752998 # C CNT
410 410 1 0.000000 3.832000 1.395000 41.752998 # C CNT
411 411 1 0.000000 3.531000 2.039000 42.980999 # C CNT
412 412 1 0.000000 2.621000 3.124000 42.980999 # C CNT
413 413 1 0.000000 2.039000 3.531000 41.752998 # C CNT
414 414 1 0.000000 0.708000 4.016000 41.752998 # C CNT
415 415 1 0.000000 0.000000 4.078000 42.980999 # C CNT
416 416 1 0.000000 -1.395000 3.832000 42.980999 # C CNT
417 417 1 0.000000 -2.039000 3.531000 41.752998 # C CNT
418 418 1 0.000000 -3.124000 2.621000 41.752998 # C CNT
419 419 1 0.000000 -3.531000 2.039000 42.980999 # C CNT
420 420 1 0.000000 -4.016000 0.708000 42.980999 # C CNT
421 421 1 0.000000 -4.078000 0.000000 41.752998 # C CNT
422 422 1 0.000000 -3.832000 -1.395000 41.752998 # C CNT
423 423 1 0.000000 -3.531000 -2.039000 42.980999 # C CNT
424 424 1 0.000000 -2.621000 -3.124000 42.980999 # C CNT
425 425 1 0.000000 -2.039000 -3.531000 41.752998 # C CNT
426 426 1 0.000000 -0.708000 -4.016000 41.752998 # C CNT
427 427 1 0.000000 0.000000 -4.078000 42.980999 # C CNT
428 428 1 0.000000 1.395000 -3.832000 42.980999 # C CNT
429 429 1 0.000000 2.039000 -3.531000 41.752998 # C CNT
430 430 1 0.000000 3.124000 -2.621000 41.752998 # C CNT
431 431 1 0.000000 3.531000 -2.039000 42.980999 # C CNT
432 432 1 0.000000 4.016000 -0.708000 42.980999 # C CNT
433 433 1 0.000000 4.078000 0.000000 44.209000 # C CNT
434 434 1 0.000000 3.832000 1.395000 44.209000 # C CNT
435 435 1 0.000000 3.531000 2.039000 45.437000 # C CNT
436 436 1 0.000000 2.621000 3.124000 45.437000 # C CNT
437 437 1 0.000000 2.039000 3.531000 44.209000 # C CNT
438 438 1 0.000000 0.708000 4.016000 44.209000 # C CNT
439 439 1 0.000000 0.000000 4.078000 45.437000 # C CNT
440 440 1 0.000000 -1.395000 3.832000 45.437000 # C CNT
441 441 1 0.000000 -2.039000 3.531000 44.209000 # C CNT
442 442 1 0.000000 -3.124000 2.621000 44.209000 # C CNT
443 443 1 0.000000 -3.531000 2.039000 45.437000 # C CNT
444 444 1 0.000000 -4.016000 0.708000 45.437000 # C CNT
445 445 1 0.000000 -4.078000 0.000000 44.209000 # C CNT
446 446 1 0.000000 -3.832000 -1.395000 44.209000 # C CNT
447 447 1 0.000000 -3.531000 -2.039000 45.437000 # C CNT
448 448 1 0.000000 -2.621000 -3.124000 45.437000 # C CNT
449 449 1 0.000000 -2.039000 -3.531000 44.209000 # C CNT
450 450 1 0.000000 -0.708000 -4.016000 44.209000 # C CNT
451 451 1 0.000000 0.000000 -4.078000 45.437000 # C CNT
452 452 1 0.000000 1.395000 -3.832000 45.437000 # C CNT
453 453 1 0.000000 2.039000 -3.531000 44.209000 # C CNT
454 454 1 0.000000 3.124000 -2.621000 44.209000 # C CNT
455 455 1 0.000000 3.531000 -2.039000 45.437000 # C CNT
456 456 1 0.000000 4.016000 -0.708000 45.437000 # C CNT
457 457 1 0.000000 4.078000 0.000000 46.665001 # C CNT
458 458 1 0.000000 3.832000 1.395000 46.665001 # C CNT
459 459 1 0.000000 3.531000 2.039000 47.893002 # C CNT
460 460 1 0.000000 2.621000 3.124000 47.893002 # C CNT
461 461 1 0.000000 2.039000 3.531000 46.665001 # C CNT
462 462 1 0.000000 0.708000 4.016000 46.665001 # C CNT
463 463 1 0.000000 0.000000 4.078000 47.893002 # C CNT
464 464 1 0.000000 -1.395000 3.832000 47.893002 # C CNT
465 465 1 0.000000 -2.039000 3.531000 46.665001 # C CNT
466 466 1 0.000000 -3.124000 2.621000 46.665001 # C CNT
467 467 1 0.000000 -3.531000 2.039000 47.893002 # C CNT
468 468 1 0.000000 -4.016000 0.708000 47.893002 # C CNT
469 469 1 0.000000 -4.078000 0.000000 46.665001 # C CNT
470 470 1 0.000000 -3.832000 -1.395000 46.665001 # C CNT
471 471 1 0.000000 -3.531000 -2.039000 47.893002 # C CNT
472 472 1 0.000000 -2.621000 -3.124000 47.893002 # C CNT
473 473 1 0.000000 -2.039000 -3.531000 46.665001 # C CNT
474 474 1 0.000000 -0.708000 -4.016000 46.665001 # C CNT
475 475 1 0.000000 0.000000 -4.078000 47.893002 # C CNT
476 476 1 0.000000 1.395000 -3.832000 47.893002 # C CNT
477 477 1 0.000000 2.039000 -3.531000 46.665001 # C CNT
478 478 1 0.000000 3.124000 -2.621000 46.665001 # C CNT
479 479 1 0.000000 3.531000 -2.039000 47.893002 # C CNT
480 480 1 0.000000 4.016000 -0.708000 47.893002 # C CNT
481 481 1 0.000000 4.078000 0.000000 49.120998 # C CNT
482 482 1 0.000000 3.832000 1.395000 49.120998 # C CNT
483 483 1 0.000000 3.531000 2.039000 50.348999 # C CNT
484 484 1 0.000000 2.621000 3.124000 50.348999 # C CNT
485 485 1 0.000000 2.039000 3.531000 49.120998 # C CNT
486 486 1 0.000000 0.708000 4.016000 49.120998 # C CNT
487 487 1 0.000000 0.000000 4.078000 50.348999 # C CNT
488 488 1 0.000000 -1.395000 3.832000 50.348999 # C CNT
489 489 1 0.000000 -2.039000 3.531000 49.120998 # C CNT
490 490 1 0.000000 -3.124000 2.621000 49.120998 # C CNT
491 491 1 0.000000 -3.531000 2.039000 50.348999 # C CNT
492 492 1 0.000000 -4.016000 0.708000 50.348999 # C CNT
493 493 1 0.000000 -4.078000 0.000000 49.120998 # C CNT
494 494 1 0.000000 -3.832000 -1.395000 49.120998 # C CNT
495 495 1 0.000000 -3.531000 -2.039000 50.348999 # C CNT
496 496 1 0.000000 -2.621000 -3.124000 50.348999 # C CNT
497 497 1 0.000000 -2.039000 -3.531000 49.120998 # C CNT
498 498 1 0.000000 -0.708000 -4.016000 49.120998 # C CNT
499 499 1 0.000000 0.000000 -4.078000 50.348999 # C CNT
500 500 1 0.000000 1.395000 -3.832000 50.348999 # C CNT
501 501 1 0.000000 2.039000 -3.531000 49.120998 # C CNT
502 502 1 0.000000 3.124000 -2.621000 49.120998 # C CNT
503 503 1 0.000000 3.531000 -2.039000 50.348999 # C CNT
504 504 1 0.000000 4.016000 -0.708000 50.348999 # C CNT
505 505 1 0.000000 4.078000 0.000000 51.577000 # C CNT
506 506 1 0.000000 3.832000 1.395000 51.577000 # C CNT
507 507 1 0.000000 3.531000 2.039000 52.805000 # C CNT
508 508 1 0.000000 2.621000 3.124000 52.805000 # C CNT
509 509 1 0.000000 2.039000 3.531000 51.577000 # C CNT
510 510 1 0.000000 0.708000 4.016000 51.577000 # C CNT
511 511 1 0.000000 0.000000 4.078000 52.805000 # C CNT
512 512 1 0.000000 -1.395000 3.832000 52.805000 # C CNT
513 513 1 0.000000 -2.039000 3.531000 51.577000 # C CNT
514 514 1 0.000000 -3.124000 2.621000 51.577000 # C CNT
515 515 1 0.000000 -3.531000 2.039000 52.805000 # C CNT
516 516 1 0.000000 -4.016000 0.708000 52.805000 # C CNT
517 517 1 0.000000 -4.078000 0.000000 51.577000 # C CNT
518 518 1 0.000000 -3.832000 -1.395000 51.577000 # C CNT
519 519 1 0.000000 -3.531000 -2.039000 52.805000 # C CNT
520 520 1 0.000000 -2.621000 -3.124000 52.805000 # C CNT
521 521 1 0.000000 -2.039000 -3.531000 51.577000 # C CNT
522 522 1 0.000000 -0.708000 -4.016000 51.577000 # C CNT
523 523 1 0.000000 0.000000 -4.078000 52.805000 # C CNT
524 524 1 0.000000 1.395000 -3.832000 52.805000 # C CNT
525 525 1 0.000000 2.039000 -3.531000 51.577000 # C CNT
526 526 1 0.000000 3.124000 -2.621000 51.577000 # C CNT
527 527 1 0.000000 3.531000 -2.039000 52.805000 # C CNT
528 528 1 0.000000 4.016000 -0.708000 52.805000 # C CNT
529 529 1 0.000000 4.078000 0.000000 54.033001 # C CNT
530 530 1 0.000000 3.832000 1.395000 54.033001 # C CNT
531 531 1 0.000000 3.531000 2.039000 55.261002 # C CNT
532 532 1 0.000000 2.621000 3.124000 55.261002 # C CNT
533 533 1 0.000000 2.039000 3.531000 54.033001 # C CNT
534 534 1 0.000000 0.708000 4.016000 54.033001 # C CNT
535 535 1 0.000000 0.000000 4.078000 55.261002 # C CNT
536 536 1 0.000000 -1.395000 3.832000 55.261002 # C CNT
537 537 1 0.000000 -2.039000 3.531000 54.033001 # C CNT
538 538 1 0.000000 -3.124000 2.621000 54.033001 # C CNT
539 539 1 0.000000 -3.531000 2.039000 55.261002 # C CNT
540 540 1 0.000000 -4.016000 0.708000 55.261002 # C CNT
541 541 1 0.000000 -4.078000 0.000000 54.033001 # C CNT
542 542 1 0.000000 -3.832000 -1.395000 54.033001 # C CNT
543 543 1 0.000000 -3.531000 -2.039000 55.261002 # C CNT
544 544 1 0.000000 -2.621000 -3.124000 55.261002 # C CNT
545 545 1 0.000000 -2.039000 -3.531000 54.033001 # C CNT
546 546 1 0.000000 -0.708000 -4.016000 54.033001 # C CNT
547 547 1 0.000000 0.000000 -4.078000 55.261002 # C CNT
548 548 1 0.000000 1.395000 -3.832000 55.261002 # C CNT
549 549 1 0.000000 2.039000 -3.531000 54.033001 # C CNT
550 550 1 0.000000 3.124000 -2.621000 54.033001 # C CNT
551 551 1 0.000000 3.531000 -2.039000 55.261002 # C CNT
552 552 1 0.000000 4.016000 -0.708000 55.261002 # C CNT
553 553 1 0.000000 4.078000 0.000000 56.488998 # C CNT
554 554 1 0.000000 3.832000 1.395000 56.488998 # C CNT
555 555 1 0.000000 3.531000 2.039000 57.716999 # C CNT
556 556 1 0.000000 2.621000 3.124000 57.716999 # C CNT
557 557 1 0.000000 2.039000 3.531000 56.488998 # C CNT
558 558 1 0.000000 0.708000 4.016000 56.488998 # C CNT
559 559 1 0.000000 0.000000 4.078000 57.716999 # C CNT
560 560 1 0.000000 -1.395000 3.832000 57.716999 # C CNT
561 561 1 0.000000 -2.039000 3.531000 56.488998 # C CNT
562 562 1 0.000000 -3.124000 2.621000 56.488998 # C CNT
563 563 1 0.000000 -3.531000 2.039000 57.716999 # C CNT
564 564 1 0.000000 -4.016000 0.708000 57.716999 # C CNT
565 565 1 0.000000 -4.078000 0.000000 56.488998 # C CNT
566 566 1 0.000000 -3.832000 -1.395000 56.488998 # C CNT
567 567 1 0.000000 -3.531000 -2.039000 57.716999 # C CNT
568 568 1 0.000000 -2.621000 -3.124000 57.716999 # C CNT
569 569 1 0.000000 -2.039000 -3.531000 56.488998 # C CNT
570 570 1 0.000000 -0.708000 -4.016000 56.488998 # C CNT
571 571 1 0.000000 0.000000 -4.078000 57.716999 # C CNT
572 572 1 0.000000 1.395000 -3.832000 57.716999 # C CNT
573 573 1 0.000000 2.039000 -3.531000 56.488998 # C CNT
574 574 1 0.000000 3.124000 -2.621000 56.488998 # C CNT
575 575 1 0.000000 3.531000 -2.039000 57.716999 # C CNT
576 576 1 0.000000 4.016000 -0.708000 57.716999 # C CNT
577 577 1 0.000000 4.078000 0.000000 58.945000 # C CNT
578 578 1 0.000000 3.832000 1.395000 58.945000 # C CNT
579 579 1 0.000000 3.531000 2.039000 60.173000 # C CNT
580 580 1 0.000000 2.621000 3.124000 60.173000 # C CNT
581 581 1 0.000000 2.039000 3.531000 58.945000 # C CNT
582 582 1 0.000000 0.708000 4.016000 58.945000 # C CNT
583 583 1 0.000000 0.000000 4.078000 60.173000 # C CNT
584 584 1 0.000000 -1.395000 3.832000 60.173000 # C CNT
585 585 1 0.000000 -2.039000 3.531000 58.945000 # C CNT
586 586 1 0.000000 -3.124000 2.621000 58.945000 # C CNT
587 587 1 0.000000 -3.531000 2.039000 60.173000 # C CNT
588 588 1 0.000000 -4.016000 0.708000 60.173000 # C CNT
589 589 1 0.000000 -4.078000 0.000000 58.945000 # C CNT
590 590 1 0.000000 -3.832000 -1.395000 58.945000 # C CNT
591 591 1 0.000000 -3.531000 -2.039000 60.173000 # C CNT
592 592 1 0.000000 -2.621000 -3.124000 60.173000 # C CNT
593 593 1 0.000000 -2.039000 -3.531000 58.945000 # C CNT
594 594 1 0.000000 -0.708000 -4.016000 58.945000 # C CNT
595 595 1 0.000000 0.000000 -4.078000 60.173000 # C CNT
596 596 1 0.000000 1.395000 -3.832000 60.173000 # C CNT
597 597 1 0.000000 2.039000 -3.531000 58.945000 # C CNT
598 598 1 0.000000 3.124000 -2.621000 58.945000 # C CNT
599 599 1 0.000000 3.531000 -2.039000 60.173000 # C CNT
600 600 1 0.000000 4.016000 -0.708000 60.173000 # C CNT
601 601 1 0.000000 4.078000 0.000000 61.401001 # C CNT
602 602 1 0.000000 3.832000 1.395000 61.401001 # C CNT
603 603 1 0.000000 3.531000 2.039000 62.629002 # C CNT
604 604 1 0.000000 2.621000 3.124000 62.629002 # C CNT
605 605 1 0.000000 2.039000 3.531000 61.401001 # C CNT
606 606 1 0.000000 0.708000 4.016000 61.401001 # C CNT
607 607 1 0.000000 0.000000 4.078000 62.629002 # C CNT
608 608 1 0.000000 -1.395000 3.832000 62.629002 # C CNT
609 609 1 0.000000 -2.039000 3.531000 61.401001 # C CNT
610 610 1 0.000000 -3.124000 2.621000 61.401001 # C CNT
611 611 1 0.000000 -3.531000 2.039000 62.629002 # C CNT
612 612 1 0.000000 -4.016000 0.708000 62.629002 # C CNT
613 613 1 0.000000 -4.078000 0.000000 61.401001 # C CNT
614 614 1 0.000000 -3.832000 -1.395000 61.401001 # C CNT
615 615 1 0.000000 -3.531000 -2.039000 62.629002 # C CNT
616 616 1 0.000000 -2.621000 -3.124000 62.629002 # C CNT
617 617 1 0.000000 -2.039000 -3.531000 61.401001 # C CNT
618 618 1 0.000000 -0.708000 -4.016000 61.401001 # C CNT
619 619 1 0.000000 0.000000 -4.078000 62.629002 # C CNT
620 620 1 0.000000 1.395000 -3.832000 62.629002 # C CNT
621 621 1 0.000000 2.039000 -3.531000 61.401001 # C CNT
622 622 1 0.000000 3.124000 -2.621000 61.401001 # C CNT
623 623 1 0.000000 3.531000 -2.039000 62.629002 # C CNT
624 624 1 0.000000 4.016000 -0.708000 62.629002 # C CNT
625 625 1 0.000000 4.078000 0.000000 63.856998 # C CNT
626 626 1 0.000000 3.832000 1.395000 63.856998 # C CNT
627 627 1 0.000000 3.531000 2.039000 65.084999 # C CNT
628 628 1 0.000000 2.621000 3.124000 65.084999 # C CNT
629 629 1 0.000000 2.039000 3.531000 63.856998 # C CNT
630 630 1 0.000000 0.708000 4.016000 63.856998 # C CNT
631 631 1 0.000000 0.000000 4.078000 65.084999 # C CNT
632 632 1 0.000000 -1.395000 3.832000 65.084999 # C CNT
633 633 1 0.000000 -2.039000 3.531000 63.856998 # C CNT
634 634 1 0.000000 -3.124000 2.621000 63.856998 # C CNT
635 635 1 0.000000 -3.531000 2.039000 65.084999 # C CNT
636 636 1 0.000000 -4.016000 0.708000 65.084999 # C CNT
637 637 1 0.000000 -4.078000 0.000000 63.856998 # C CNT
638 638 1 0.000000 -3.832000 -1.395000 63.856998 # C CNT
639 639 1 0.000000 -3.531000 -2.039000 65.084999 # C CNT
640 640 1 0.000000 -2.621000 -3.124000 65.084999 # C CNT
641 641 1 0.000000 -2.039000 -3.531000 63.856998 # C CNT
642 642 1 0.000000 -0.708000 -4.016000 63.856998 # C CNT
643 643 1 0.000000 0.000000 -4.078000 65.084999 # C CNT
644 644 1 0.000000 1.395000 -3.832000 65.084999 # C CNT
645 645 1 0.000000 2.039000 -3.531000 63.856998 # C CNT
646 646 1 0.000000 3.124000 -2.621000 63.856998 # C CNT
647 647 1 0.000000 3.531000 -2.039000 65.084999 # C CNT
648 648 1 0.000000 4.016000 -0.708000 65.084999 # C CNT
649 649 1 0.000000 4.078000 0.000000 66.313004 # C CNT
650 650 1 0.000000 3.832000 1.395000 66.313004 # C CNT
651 651 1 0.000000 3.531000 2.039000 67.541000 # C CNT
652 652 1 0.000000 2.621000 3.124000 67.541000 # C CNT
653 653 1 0.000000 2.039000 3.531000 66.313004 # C CNT
654 654 1 0.000000 0.708000 4.016000 66.313004 # C CNT
655 655 1 0.000000 0.000000 4.078000 67.541000 # C CNT
656 656 1 0.000000 -1.395000 3.832000 67.541000 # C CNT
657 657 1 0.000000 -2.039000 3.531000 66.313004 # C CNT
658 658 1 0.000000 -3.124000 2.621000 66.313004 # C CNT
659 659 1 0.000000 -3.531000 2.039000 67.541000 # C CNT
660 660 1 0.000000 -4.016000 0.708000 67.541000 # C CNT
661 661 1 0.000000 -4.078000 0.000000 66.313004 # C CNT
662 662 1 0.000000 -3.832000 -1.395000 66.313004 # C CNT
663 663 1 0.000000 -3.531000 -2.039000 67.541000 # C CNT
664 664 1 0.000000 -2.621000 -3.124000 67.541000 # C CNT
665 665 1 0.000000 -2.039000 -3.531000 66.313004 # C CNT
666 666 1 0.000000 -0.708000 -4.016000 66.313004 # C CNT
667 667 1 0.000000 0.000000 -4.078000 67.541000 # C CNT
668 668 1 0.000000 1.395000 -3.832000 67.541000 # C CNT
669 669 1 0.000000 2.039000 -3.531000 66.313004 # C CNT
670 670 1 0.000000 3.124000 -2.621000 66.313004 # C CNT
671 671 1 0.000000 3.531000 -2.039000 67.541000 # C CNT
672 672 1 0.000000 4.016000 -0.708000 67.541000 # C CNT
673 673 1 0.000000 4.078000 0.000000 68.768997 # C CNT
674 674 1 0.000000 3.832000 1.395000 68.768997 # C CNT
675 675 1 0.000000 3.531000 2.039000 69.997002 # C CNT
676 676 1 0.000000 2.621000 3.124000 69.997002 # C CNT
677 677 1 0.000000 2.039000 3.531000 68.768997 # C CNT
678 678 1 0.000000 0.708000 4.016000 68.768997 # C CNT
679 679 1 0.000000 0.000000 4.078000 69.997002 # C CNT
680 680 1 0.000000 -1.395000 3.832000 69.997002 # C CNT
681 681 1 0.000000 -2.039000 3.531000 68.768997 # C CNT
682 682 1 0.000000 -3.124000 2.621000 68.768997 # C CNT
683 683 1 0.000000 -3.531000 2.039000 69.997002 # C CNT
684 684 1 0.000000 -4.016000 0.708000 69.997002 # C CNT
685 685 1 0.000000 -4.078000 0.000000 68.768997 # C CNT
686 686 1 0.000000 -3.832000 -1.395000 68.768997 # C CNT
687 687 1 0.000000 -3.531000 -2.039000 69.997002 # C CNT
688 688 1 0.000000 -2.621000 -3.124000 69.997002 # C CNT
689 689 1 0.000000 -2.039000 -3.531000 68.768997 # C CNT
690 690 1 0.000000 -0.708000 -4.016000 68.768997 # C CNT
691 691 1 0.000000 0.000000 -4.078000 69.997002 # C CNT
692 692 1 0.000000 1.395000 -3.832000 69.997002 # C CNT
693 693 1 0.000000 2.039000 -3.531000 68.768997 # C CNT
694 694 1 0.000000 3.124000 -2.621000 68.768997 # C CNT
695 695 1 0.000000 3.531000 -2.039000 69.997002 # C CNT
696 696 1 0.000000 4.016000 -0.708000 69.997002 # C CNT
697 697 1 0.000000 4.078000 0.000000 71.224998 # C CNT
698 698 1 0.000000 3.832000 1.395000 71.224998 # C CNT
699 699 1 0.000000 3.531000 2.039000 72.453003 # C CNT
700 700 1 0.000000 2.621000 3.124000 72.453003 # C CNT
701 701 1 0.000000 2.039000 3.531000 71.224998 # C CNT
702 702 1 0.000000 0.708000 4.016000 71.224998 # C CNT
703 703 1 0.000000 0.000000 4.078000 72.453003 # C CNT
704 704 1 0.000000 -1.395000 3.832000 72.453003 # C CNT
705 705 1 0.000000 -2.039000 3.531000 71.224998 # C CNT
706 706 1 0.000000 -3.124000 2.621000 71.224998 # C CNT
707 707 1 0.000000 -3.531000 2.039000 72.453003 # C CNT
708 708 1 0.000000 -4.016000 0.708000 72.453003 # C CNT
709 709 1 0.000000 -4.078000 0.000000 71.224998 # C CNT
710 710 1 0.000000 -3.832000 -1.395000 71.224998 # C CNT
711 711 1 0.000000 -3.531000 -2.039000 72.453003 # C CNT
712 712 1 0.000000 -2.621000 -3.124000 72.453003 # C CNT
713 713 1 0.000000 -2.039000 -3.531000 71.224998 # C CNT
714 714 1 0.000000 -0.708000 -4.016000 71.224998 # C CNT
715 715 1 0.000000 0.000000 -4.078000 72.453003 # C CNT
716 716 1 0.000000 1.395000 -3.832000 72.453003 # C CNT
717 717 1 0.000000 2.039000 -3.531000 71.224998 # C CNT
718 718 1 0.000000 3.124000 -2.621000 71.224998 # C CNT
719 719 1 0.000000 3.531000 -2.039000 72.453003 # C CNT
720 720 1 0.000000 4.016000 -0.708000 72.453003 # C CNT
721 721 1 0.000000 4.078000 0.000000 73.681000 # C CNT
722 722 1 0.000000 3.832000 1.395000 73.681000 # C CNT
723 723 1 0.000000 3.531000 2.039000 74.908997 # C CNT
724 724 1 0.000000 2.621000 3.124000 74.908997 # C CNT
725 725 1 0.000000 2.039000 3.531000 73.681000 # C CNT
726 726 1 0.000000 0.708000 4.016000 73.681000 # C CNT
727 727 1 0.000000 0.000000 4.078000 74.908997 # C CNT
728 728 1 0.000000 -1.395000 3.832000 74.908997 # C CNT
729 729 1 0.000000 -2.039000 3.531000 73.681000 # C CNT
730 730 1 0.000000 -3.124000 2.621000 73.681000 # C CNT
731 731 1 0.000000 -3.531000 2.039000 74.908997 # C CNT
732 732 1 0.000000 -4.016000 0.708000 74.908997 # C CNT
733 733 1 0.000000 -4.078000 0.000000 73.681000 # C CNT
734 734 1 0.000000 -3.832000 -1.395000 73.681000 # C CNT
735 735 1 0.000000 -3.531000 -2.039000 74.908997 # C CNT
736 736 1 0.000000 -2.621000 -3.124000 74.908997 # C CNT
737 737 1 0.000000 -2.039000 -3.531000 73.681000 # C CNT
738 738 1 0.000000 -0.708000 -4.016000 73.681000 # C CNT
739 739 1 0.000000 0.000000 -4.078000 74.908997 # C CNT
740 740 1 0.000000 1.395000 -3.832000 74.908997 # C CNT
741 741 1 0.000000 2.039000 -3.531000 73.681000 # C CNT
742 742 1 0.000000 3.124000 -2.621000 73.681000 # C CNT
743 743 1 0.000000 3.531000 -2.039000 74.908997 # C CNT
744 744 1 0.000000 4.016000 -0.708000 74.908997 # C CNT
745 745 1 0.000000 4.078000 0.000000 76.137001 # C CNT
746 746 1 0.000000 3.832000 1.395000 76.137001 # C CNT
747 747 1 0.000000 3.531000 2.039000 77.365997 # C CNT
748 748 1 0.000000 2.621000 3.124000 77.365997 # C CNT
749 749 1 0.000000 2.039000 3.531000 76.137001 # C CNT
750 750 1 0.000000 0.708000 4.016000 76.137001 # C CNT
751 751 1 0.000000 0.000000 4.078000 77.365997 # C CNT
752 752 1 0.000000 -1.395000 3.832000 77.365997 # C CNT
753 753 1 0.000000 -2.039000 3.531000 76.137001 # C CNT
754 754 1 0.000000 -3.124000 2.621000 76.137001 # C CNT
755 755 1 0.000000 -3.531000 2.039000 77.365997 # C CNT
756 756 1 0.000000 -4.016000 0.708000 77.365997 # C CNT
757 757 1 0.000000 -4.078000 0.000000 76.137001 # C CNT
758 758 1 0.000000 -3.832000 -1.395000 76.137001 # C CNT
759 759 1 0.000000 -3.531000 -2.039000 77.365997 # C CNT
760 760 1 0.000000 -2.621000 -3.124000 77.365997 # C CNT
761 761 1 0.000000 -2.039000 -3.531000 76.137001 # C CNT
762 762 1 0.000000 -0.708000 -4.016000 76.137001 # C CNT
763 763 1 0.000000 0.000000 -4.078000 77.365997 # C CNT
764 764 1 0.000000 1.395000 -3.832000 77.365997 # C CNT
765 765 1 0.000000 2.039000 -3.531000 76.137001 # C CNT
766 766 1 0.000000 3.124000 -2.621000 76.137001 # C CNT
767 767 1 0.000000 3.531000 -2.039000 77.365997 # C CNT
768 768 1 0.000000 4.016000 -0.708000 77.365997 # C CNT
769 769 1 0.000000 4.078000 0.000000 78.594002 # C CNT
770 770 1 0.000000 3.832000 1.395000 78.594002 # C CNT
771 771 1 0.000000 3.531000 2.039000 79.821999 # C CNT
772 772 1 0.000000 2.621000 3.124000 79.821999 # C CNT
773 773 1 0.000000 2.039000 3.531000 78.594002 # C CNT
774 774 1 0.000000 0.708000 4.016000 78.594002 # C CNT
775 775 1 0.000000 0.000000 4.078000 79.821999 # C CNT
776 776 1 0.000000 -1.395000 3.832000 79.821999 # C CNT
777 777 1 0.000000 -2.039000 3.531000 78.594002 # C CNT
778 778 1 0.000000 -3.124000 2.621000 78.594002 # C CNT
779 779 1 0.000000 -3.531000 2.039000 79.821999 # C CNT
780 780 1 0.000000 -4.016000 0.708000 79.821999 # C CNT
781 781 1 0.000000 -4.078000 0.000000 78.594002 # C CNT
782 782 1 0.000000 -3.832000 -1.395000 78.594002 # C CNT
783 783 1 0.000000 -3.531000 -2.039000 79.821999 # C CNT
784 784 1 0.000000 -2.621000 -3.124000 79.821999 # C CNT
785 785 1 0.000000 -2.039000 -3.531000 78.594002 # C CNT
786 786 1 0.000000 -0.708000 -4.016000 78.594002 # C CNT
787 787 1 0.000000 0.000000 -4.078000 79.821999 # C CNT
788 788 1 0.000000 1.395000 -3.832000 79.821999 # C CNT
789 789 1 0.000000 2.039000 -3.531000 78.594002 # C CNT
790 790 1 0.000000 3.124000 -2.621000 78.594002 # C CNT
791 791 1 0.000000 3.531000 -2.039000 79.821999 # C CNT
792 792 1 0.000000 4.016000 -0.708000 79.821999 # C CNT
793 793 1 0.000000 4.078000 0.000000 81.050003 # C CNT
794 794 1 0.000000 3.832000 1.395000 81.050003 # C CNT
795 795 1 0.000000 3.531000 2.039000 82.278000 # C CNT
796 796 1 0.000000 2.621000 3.124000 82.278000 # C CNT
797 797 1 0.000000 2.039000 3.531000 81.050003 # C CNT
798 798 1 0.000000 0.708000 4.016000 81.050003 # C CNT
799 799 1 0.000000 0.000000 4.078000 82.278000 # C CNT
800 800 1 0.000000 -1.395000 3.832000 82.278000 # C CNT
801 801 1 0.000000 -2.039000 3.531000 81.050003 # C CNT
802 802 1 0.000000 -3.124000 2.621000 81.050003 # C CNT
803 803 1 0.000000 -3.531000 2.039000 82.278000 # C CNT
804 804 1 0.000000 -4.016000 0.708000 82.278000 # C CNT
805 805 1 0.000000 -4.078000 0.000000 81.050003 # C CNT
806 806 1 0.000000 -3.832000 -1.395000 81.050003 # C CNT
807 807 1 0.000000 -3.531000 -2.039000 82.278000 # C CNT
808 808 1 0.000000 -2.621000 -3.124000 82.278000 # C CNT
809 809 1 0.000000 -2.039000 -3.531000 81.050003 # C CNT
810 810 1 0.000000 -0.708000 -4.016000 81.050003 # C CNT
811 811 1 0.000000 0.000000 -4.078000 82.278000 # C CNT
812 812 1 0.000000 1.395000 -3.832000 82.278000 # C CNT
813 813 1 0.000000 2.039000 -3.531000 81.050003 # C CNT
814 814 1 0.000000 3.124000 -2.621000 81.050003 # C CNT
815 815 1 0.000000 3.531000 -2.039000 82.278000 # C CNT
816 816 1 0.000000 4.016000 -0.708000 82.278000 # C CNT
817 817 1 0.000000 4.078000 0.000000 83.505997 # C CNT
818 818 1 0.000000 3.832000 1.395000 83.505997 # C CNT
819 819 1 0.000000 3.531000 2.039000 84.734001 # C CNT
820 820 1 0.000000 2.621000 3.124000 84.734001 # C CNT
821 821 1 0.000000 2.039000 3.531000 83.505997 # C CNT
822 822 1 0.000000 0.708000 4.016000 83.505997 # C CNT
823 823 1 0.000000 0.000000 4.078000 84.734001 # C CNT
824 824 1 0.000000 -1.395000 3.832000 84.734001 # C CNT
825 825 1 0.000000 -2.039000 3.531000 83.505997 # C CNT
826 826 1 0.000000 -3.124000 2.621000 83.505997 # C CNT
827 827 1 0.000000 -3.531000 2.039000 84.734001 # C CNT
828 828 1 0.000000 -4.016000 0.708000 84.734001 # C CNT
829 829 1 0.000000 -4.078000 0.000000 83.505997 # C CNT
830 830 1 0.000000 -3.832000 -1.395000 83.505997 # C CNT
831 831 1 0.000000 -3.531000 -2.039000 84.734001 # C CNT
832 832 1 0.000000 -2.621000 -3.124000 84.734001 # C CNT
833 833 1 0.000000 -2.039000 -3.531000 83.505997 # C CNT
834 834 1 0.000000 -0.708000 -4.016000 83.505997 # C CNT
835 835 1 0.000000 0.000000 -4.078000 84.734001 # C CNT
836 836 1 0.000000 1.395000 -3.832000 84.734001 # C CNT
837 837 1 0.000000 2.039000 -3.531000 83.505997 # C CNT
838 838 1 0.000000 3.124000 -2.621000 83.505997 # C CNT
839 839 1 0.000000 3.531000 -2.039000 84.734001 # C CNT
840 840 1 0.000000 4.016000 -0.708000 84.734001 # C CNT
841 841 1 0.000000 4.078000 0.000000 85.961998 # C CNT
842 842 1 0.000000 3.832000 1.395000 85.961998 # C CNT
843 843 1 0.000000 3.531000 2.039000 87.190002 # C CNT
844 844 1 0.000000 2.621000 3.124000 87.190002 # C CNT
845 845 1 0.000000 2.039000 3.531000 85.961998 # C CNT
846 846 1 0.000000 0.708000 4.016000 85.961998 # C CNT
847 847 1 0.000000 0.000000 4.078000 87.190002 # C CNT
848 848 1 0.000000 -1.395000 3.832000 87.190002 # C CNT
849 849 1 0.000000 -2.039000 3.531000 85.961998 # C CNT
850 850 1 0.000000 -3.124000 2.621000 85.961998 # C CNT
851 851 1 0.000000 -3.531000 2.039000 87.190002 # C CNT
852 852 1 0.000000 -4.016000 0.708000 87.190002 # C CNT
853 853 1 0.000000 -4.078000 0.000000 85.961998 # C CNT
854 854 1 0.000000 -3.832000 -1.395000 85.961998 # C CNT
855 855 1 0.000000 -3.531000 -2.039000 87.190002 # C CNT
856 856 1 0.000000 -2.621000 -3.124000 87.190002 # C CNT
857 857 1 0.000000 -2.039000 -3.531000 85.961998 # C CNT
858 858 1 0.000000 -0.708000 -4.016000 85.961998 # C CNT
859 859 1 0.000000 0.000000 -4.078000 87.190002 # C CNT
860 860 1 0.000000 1.395000 -3.832000 87.190002 # C CNT
861 861 1 0.000000 2.039000 -3.531000 85.961998 # C CNT
862 862 1 0.000000 3.124000 -2.621000 85.961998 # C CNT
863 863 1 0.000000 3.531000 -2.039000 87.190002 # C CNT
864 864 1 0.000000 4.016000 -0.708000 87.190002 # C CNT
865 865 1 0.000000 4.078000 0.000000 88.417999 # C CNT
866 866 1 0.000000 3.832000 1.395000 88.417999 # C CNT
867 867 1 0.000000 3.531000 2.039000 89.646004 # C CNT
868 868 1 0.000000 2.621000 3.124000 89.646004 # C CNT
869 869 1 0.000000 2.039000 3.531000 88.417999 # C CNT
870 870 1 0.000000 0.708000 4.016000 88.417999 # C CNT
871 871 1 0.000000 0.000000 4.078000 89.646004 # C CNT
872 872 1 0.000000 -1.395000 3.832000 89.646004 # C CNT
873 873 1 0.000000 -2.039000 3.531000 88.417999 # C CNT
874 874 1 0.000000 -3.124000 2.621000 88.417999 # C CNT
875 875 1 0.000000 -3.531000 2.039000 89.646004 # C CNT
876 876 1 0.000000 -4.016000 0.708000 89.646004 # C CNT
877 877 1 0.000000 -4.078000 0.000000 88.417999 # C CNT
878 878 1 0.000000 -3.832000 -1.395000 88.417999 # C CNT
879 879 1 0.000000 -3.531000 -2.039000 89.646004 # C CNT
880 880 1 0.000000 -2.621000 -3.124000 89.646004 # C CNT
881 881 1 0.000000 -2.039000 -3.531000 88.417999 # C CNT
882 882 1 0.000000 -0.708000 -4.016000 88.417999 # C CNT
883 883 1 0.000000 0.000000 -4.078000 89.646004 # C CNT
884 884 1 0.000000 1.395000 -3.832000 89.646004 # C CNT
885 885 1 0.000000 2.039000 -3.531000 88.417999 # C CNT
886 886 1 0.000000 3.124000 -2.621000 88.417999 # C CNT
887 887 1 0.000000 3.531000 -2.039000 89.646004 # C CNT
888 888 1 0.000000 4.016000 -0.708000 89.646004 # C CNT
889 889 1 0.000000 4.078000 0.000000 90.874001 # C CNT
890 890 1 0.000000 3.832000 1.395000 90.874001 # C CNT
891 891 1 0.000000 3.531000 2.039000 92.101997 # C CNT
892 892 1 0.000000 2.621000 3.124000 92.101997 # C CNT
893 893 1 0.000000 2.039000 3.531000 90.874001 # C CNT
894 894 1 0.000000 0.708000 4.016000 90.874001 # C CNT
895 895 1 0.000000 0.000000 4.078000 92.101997 # C CNT
896 896 1 0.000000 -1.395000 3.832000 92.101997 # C CNT
897 897 1 0.000000 -2.039000 3.531000 90.874001 # C CNT
898 898 1 0.000000 -3.124000 2.621000 90.874001 # C CNT
899 899 1 0.000000 -3.531000 2.039000 92.101997 # C CNT
900 900 1 0.000000 -4.016000 0.708000 92.101997 # C CNT
901 901 1 0.000000 -4.078000 0.000000 90.874001 # C CNT
902 902 1 0.000000 -3.832000 -1.395000 90.874001 # C CNT
903 903 1 0.000000 -3.531000 -2.039000 92.101997 # C CNT
904 904 1 0.000000 -2.621000 -3.124000 92.101997 # C CNT
905 905 1 0.000000 -2.039000 -3.531000 90.874001 # C CNT
906 906 1 0.000000 -0.708000 -4.016000 90.874001 # C CNT
907 907 1 0.000000 0.000000 -4.078000 92.101997 # C CNT
908 908 1 0.000000 1.395000 -3.832000 92.101997 # C CNT
909 909 1 0.000000 2.039000 -3.531000 90.874001 # C CNT
910 910 1 0.000000 3.124000 -2.621000 90.874001 # C CNT
911 911 1 0.000000 3.531000 -2.039000 92.101997 # C CNT
912 912 1 0.000000 4.016000 -0.708000 92.101997 # C CNT
913 913 1 0.000000 4.078000 0.000000 93.330002 # C CNT
914 914 1 0.000000 3.832000 1.395000 93.330002 # C CNT
915 915 1 0.000000 3.531000 2.039000 94.557999 # C CNT
916 916 1 0.000000 2.621000 3.124000 94.557999 # C CNT
917 917 1 0.000000 2.039000 3.531000 93.330002 # C CNT
918 918 1 0.000000 0.708000 4.016000 93.330002 # C CNT
919 919 1 0.000000 0.000000 4.078000 94.557999 # C CNT
920 920 1 0.000000 -1.395000 3.832000 94.557999 # C CNT
921 921 1 0.000000 -2.039000 3.531000 93.330002 # C CNT
922 922 1 0.000000 -3.124000 2.621000 93.330002 # C CNT
923 923 1 0.000000 -3.531000 2.039000 94.557999 # C CNT
924 924 1 0.000000 -4.016000 0.708000 94.557999 # C CNT
925 925 1 0.000000 -4.078000 0.000000 93.330002 # C CNT
926 926 1 0.000000 -3.832000 -1.395000 93.330002 # C CNT
927 927 1 0.000000 -3.531000 -2.039000 94.557999 # C CNT
928 928 1 0.000000 -2.621000 -3.124000 94.557999 # C CNT
929 929 1 0.000000 -2.039000 -3.531000 93.330002 # C CNT
930 930 1 0.000000 -0.708000 -4.016000 93.330002 # C CNT
931 931 1 0.000000 0.000000 -4.078000 94.557999 # C CNT
932 932 1 0.000000 1.395000 -3.832000 94.557999 # C CNT
933 933 1 0.000000 2.039000 -3.531000 93.330002 # C CNT
934 934 1 0.000000 3.124000 -2.621000 93.330002 # C CNT
935 935 1 0.000000 3.531000 -2.039000 94.557999 # C CNT
936 936 1 0.000000 4.016000 -0.708000 94.557999 # C CNT
937 937 1 0.000000 4.078000 0.000000 95.786003 # C CNT
938 938 1 0.000000 3.832000 1.395000 95.786003 # C CNT
939 939 1 0.000000 3.531000 2.039000 97.014000 # C CNT
940 940 1 0.000000 2.621000 3.124000 97.014000 # C CNT
941 941 1 0.000000 2.039000 3.531000 95.786003 # C CNT
942 942 1 0.000000 0.708000 4.016000 95.786003 # C CNT
943 943 1 0.000000 0.000000 4.078000 97.014000 # C CNT
944 944 1 0.000000 -1.395000 3.832000 97.014000 # C CNT
945 945 1 0.000000 -2.039000 3.531000 95.786003 # C CNT
946 946 1 0.000000 -3.124000 2.621000 95.786003 # C CNT
947 947 1 0.000000 -3.531000 2.039000 97.014000 # C CNT
948 948 1 0.000000 -4.016000 0.708000 97.014000 # C CNT
949 949 1 0.000000 -4.078000 0.000000 95.786003 # C CNT
950 950 1 0.000000 -3.832000 -1.395000 95.786003 # C CNT
951 951 1 0.000000 -3.531000 -2.039000 97.014000 # C CNT
952 952 1 0.000000 -2.621000 -3.124000 97.014000 # C CNT
953 953 1 0.000000 -2.039000 -3.531000 95.786003 # C CNT
954 954 1 0.000000 -0.708000 -4.016000 95.786003 # C CNT
955 955 1 0.000000 0.000000 -4.078000 97.014000 # C CNT
956 956 1 0.000000 1.395000 -3.832000 97.014000 # C CNT
957 957 1 0.000000 2.039000 -3.531000 95.786003 # C CNT
958 958 1 0.000000 3.124000 -2.621000 95.786003 # C CNT
959 959 1 0.000000 3.531000 -2.039000 97.014000 # C CNT
960 960 1 0.000000 4.016000 -0.708000 97.014000 # C CNT
961 961 1 0.000000 4.078000 0.000000 98.241997 # C CNT
962 962 1 0.000000 3.832000 1.395000 98.241997 # C CNT
963 963 1 0.000000 3.531000 2.039000 99.470001 # C CNT
964 964 1 0.000000 2.621000 3.124000 99.470001 # C CNT
965 965 1 0.000000 2.039000 3.531000 98.241997 # C CNT
966 966 1 0.000000 0.708000 4.016000 98.241997 # C CNT
967 967 1 0.000000 0.000000 4.078000 99.470001 # C CNT
968 968 1 0.000000 -1.395000 3.832000 99.470001 # C CNT
969 969 1 0.000000 -2.039000 3.531000 98.241997 # C CNT
970 970 1 0.000000 -3.124000 2.621000 98.241997 # C CNT
971 971 1 0.000000 -3.531000 2.039000 99.470001 # C CNT
972 972 1 0.000000 -4.016000 0.708000 99.470001 # C CNT
973 973 1 0.000000 -4.078000 0.000000 98.241997 # C CNT
974 974 1 0.000000 -3.832000 -1.395000 98.241997 # C CNT
975 975 1 0.000000 -3.531000 -2.039000 99.470001 # C CNT
976 976 1 0.000000 -2.621000 -3.124000 99.470001 # C CNT
977 977 1 0.000000 -2.039000 -3.531000 98.241997 # C CNT
978 978 1 0.000000 -0.708000 -4.016000 98.241997 # C CNT
979 979 1 0.000000 0.000000 -4.078000 99.470001 # C CNT
980 980 1 0.000000 1.395000 -3.832000 99.470001 # C CNT
981 981 1 0.000000 2.039000 -3.531000 98.241997 # C CNT
982 982 1 0.000000 3.124000 -2.621000 98.241997 # C CNT
983 983 1 0.000000 3.531000 -2.039000 99.470001 # C CNT
984 984 1 0.000000 4.016000 -0.708000 99.470001 # C CNT
985 985 1 0.000000 4.078000 0.000000 100.697998 # C CNT
986 986 1 0.000000 3.832000 1.395000 100.697998 # C CNT
987 987 1 0.000000 3.531000 2.039000 101.926003 # C CNT
988 988 1 0.000000 2.621000 3.124000 101.926003 # C CNT
989 989 1 0.000000 2.039000 3.531000 100.697998 # C CNT
990 990 1 0.000000 0.708000 4.016000 100.697998 # C CNT
991 991 1 0.000000 0.000000 4.078000 101.926003 # C CNT
992 992 1 0.000000 -1.395000 3.832000 101.926003 # C CNT
993 993 1 0.000000 -2.039000 3.531000 100.697998 # C CNT
994 994 1 0.000000 -3.124000 2.621000 100.697998 # C CNT
995 995 1 0.000000 -3.531000 2.039000 101.926003 # C CNT
996 996 1 0.000000 -4.016000 0.708000 101.926003 # C CNT
997 997 1 0.000000 -4.078000 0.000000 100.697998 # C CNT
998 998 1 0.000000 -3.832000 -1.395000 100.697998 # C CNT
999 999 1 0.000000 -3.531000 -2.039000 101.926003 # C CNT
1000 1000 1 0.000000 -2.621000 -3.124000 101.926003 # C CNT
1001 1001 1 0.000000 -2.039000 -3.531000 100.697998 # C CNT
1002 1002 1 0.000000 -0.708000 -4.016000 100.697998 # C CNT
1003 1003 1 0.000000 0.000000 -4.078000 101.926003 # C CNT
1004 1004 1 0.000000 1.395000 -3.832000 101.926003 # C CNT
1005 1005 1 0.000000 2.039000 -3.531000 100.697998 # C CNT
1006 1006 1 0.000000 3.124000 -2.621000 100.697998 # C CNT
1007 1007 1 0.000000 3.531000 -2.039000 101.926003 # C CNT
1008 1008 1 0.000000 4.016000 -0.708000 101.926003 # C CNT
1009 1009 1 0.000000 4.078000 0.000000 103.153999 # C CNT
1010 1010 1 0.000000 3.832000 1.395000 103.153999 # C CNT
1011 1011 1 0.000000 3.531000 2.039000 104.382004 # C CNT
1012 1012 1 0.000000 2.621000 3.124000 104.382004 # C CNT
1013 1013 1 0.000000 2.039000 3.531000 103.153999 # C CNT
1014 1014 1 0.000000 0.708000 4.016000 103.153999 # C CNT
1015 1015 1 0.000000 0.000000 4.078000 104.382004 # C CNT
1016 1016 1 0.000000 -1.395000 3.832000 104.382004 # C CNT
1017 1017 1 0.000000 -2.039000 3.531000 103.153999 # C CNT
1018 1018 1 0.000000 -3.124000 2.621000 103.153999 # C CNT
1019 1019 1 0.000000 -3.531000 2.039000 104.382004 # C CNT
1020 1020 1 0.000000 -4.016000 0.708000 104.382004 # C CNT
1021 1021 1 0.000000 -4.078000 0.000000 103.153999 # C CNT
1022 1022 1 0.000000 -3.832000 -1.395000 103.153999 # C CNT
1023 1023 1 0.000000 -3.531000 -2.039000 104.382004 # C CNT
1024 1024 1 0.000000 -2.621000 -3.124000 104.382004 # C CNT
1025 1025 1 0.000000 -2.039000 -3.531000 103.153999 # C CNT
1026 1026 1 0.000000 -0.708000 -4.016000 103.153999 # C CNT
1027 1027 1 0.000000 0.000000 -4.078000 104.382004 # C CNT
1028 1028 1 0.000000 1.395000 -3.832000 104.382004 # C CNT
1029 1029 1 0.000000 2.039000 -3.531000 103.153999 # C CNT
1030 1030 1 0.000000 3.124000 -2.621000 103.153999 # C CNT
1031 1031 1 0.000000 3.531000 -2.039000 104.382004 # C CNT
1032 1032 1 0.000000 4.016000 -0.708000 104.382004 # C CNT
1033 1033 1 0.000000 4.078000 0.000000 105.610001 # C CNT
1034 1034 1 0.000000 3.832000 1.395000 105.610001 # C CNT
1035 1035 1 0.000000 3.531000 2.039000 106.837997 # C CNT
1036 1036 1 0.000000 2.621000 3.124000 106.837997 # C CNT
1037 1037 1 0.000000 2.039000 3.531000 105.610001 # C CNT
1038 1038 1 0.000000 0.708000 4.016000 105.610001 # C CNT
1039 1039 1 0.000000 0.000000 4.078000 106.837997 # C CNT
1040 1040 1 0.000000 -1.395000 3.832000 106.837997 # C CNT
1041 1041 1 0.000000 -2.039000 3.531000 105.610001 # C CNT
1042 1042 1 0.000000 -3.124000 2.621000 105.610001 # C CNT
1043 1043 1 0.000000 -3.531000 2.039000 106.837997 # C CNT
1044 1044 1 0.000000 -4.016000 0.708000 106.837997 # C CNT
1045 1045 1 0.000000 -4.078000 0.000000 105.610001 # C CNT
1046 1046 1 0.000000 -3.832000 -1.395000 105.610001 # C CNT
1047 1047 1 0.000000 -3.531000 -2.039000 106.837997 # C CNT
1048 1048 1 0.000000 -2.621000 -3.124000 106.837997 # C CNT
1049 1049 1 0.000000 -2.039000 -3.531000 105.610001 # C CNT
1050 1050 1 0.000000 -0.708000 -4.016000 105.610001 # C CNT
1051 1051 1 0.000000 0.000000 -4.078000 106.837997 # C CNT
1052 1052 1 0.000000 1.395000 -3.832000 106.837997 # C CNT
1053 1053 1 0.000000 2.039000 -3.531000 105.610001 # C CNT
1054 1054 1 0.000000 3.124000 -2.621000 105.610001 # C CNT
1055 1055 1 0.000000 3.531000 -2.039000 106.837997 # C CNT
1056 1056 1 0.000000 4.016000 -0.708000 106.837997 # C CNT
1057 1057 1 0.000000 4.078000 0.000000 108.066002 # C CNT
1058 1058 1 0.000000 3.832000 1.395000 108.066002 # C CNT
1059 1059 1 0.000000 3.531000 2.039000 109.293999 # C CNT
1060 1060 1 0.000000 2.621000 3.124000 109.293999 # C CNT
1061 1061 1 0.000000 2.039000 3.531000 108.066002 # C CNT
1062 1062 1 0.000000 0.708000 4.016000 108.066002 # C CNT
1063 1063 1 0.000000 0.000000 4.078000 109.293999 # C CNT
1064 1064 1 0.000000 -1.395000 3.832000 109.293999 # C CNT
1065 1065 1 0.000000 -2.039000 3.531000 108.066002 # C CNT
1066 1066 1 0.000000 -3.124000 2.621000 108.066002 # C CNT
1067 1067 1 0.000000 -3.531000 2.039000 109.293999 # C CNT
1068 1068 1 0.000000 -4.016000 0.708000 109.293999 # C CNT
1069 1069 1 0.000000 -4.078000 0.000000 108.066002 # C CNT
1070 1070 1 0.000000 -3.832000 -1.395000 108.066002 # C CNT
1071 1071 1 0.000000 -3.531000 -2.039000 109.293999 # C CNT
1072 1072 1 0.000000 -2.621000 -3.124000 109.293999 # C CNT
1073 1073 1 0.000000 -2.039000 -3.531000 108.066002 # C CNT
1074 1074 1 0.000000 -0.708000 -4.016000 108.066002 # C CNT
1075 1075 1 0.000000 0.000000 -4.078000 109.293999 # C CNT
1076 1076 1 0.000000 1.395000 -3.832000 109.293999 # C CNT
1077 1077 1 0.000000 2.039000 -3.531000 108.066002 # C CNT
1078 1078 1 0.000000 3.124000 -2.621000 108.066002 # C CNT
1079 1079 1 0.000000 3.531000 -2.039000 109.293999 # C CNT
1080 1080 1 0.000000 4.016000 -0.708000 109.293999 # C CNT
1081 1081 1 0.000000 4.078000 0.000000 110.522003 # C CNT
1082 1082 1 0.000000 3.832000 1.395000 110.522003 # C CNT
1083 1083 1 0.000000 3.531000 2.039000 111.750000 # C CNT
1084 1084 1 0.000000 2.621000 3.124000 111.750000 # C CNT
1085 1085 1 0.000000 2.039000 3.531000 110.522003 # C CNT
1086 1086 1 0.000000 0.708000 4.016000 110.522003 # C CNT
1087 1087 1 0.000000 0.000000 4.078000 111.750000 # C CNT
1088 1088 1 0.000000 -1.395000 3.832000 111.750000 # C CNT
1089 1089 1 0.000000 -2.039000 3.531000 110.522003 # C CNT
1090 1090 1 0.000000 -3.124000 2.621000 110.522003 # C CNT
1091 1091 1 0.000000 -3.531000 2.039000 111.750000 # C CNT
1092 1092 1 0.000000 -4.016000 0.708000 111.750000 # C CNT
1093 1093 1 0.000000 -4.078000 0.000000 110.522003 # C CNT
1094 1094 1 0.000000 -3.832000 -1.395000 110.522003 # C CNT
1095 1095 1 0.000000 -3.531000 -2.039000 111.750000 # C CNT
1096 1096 1 0.000000 -2.621000 -3.124000 111.750000 # C CNT
1097 1097 1 0.000000 -2.039000 -3.531000 110.522003 # C CNT
1098 1098 1 0.000000 -0.708000 -4.016000 110.522003 # C CNT
1099 1099 1 0.000000 0.000000 -4.078000 111.750000 # C CNT
1100 1100 1 0.000000 1.395000 -3.832000 111.750000 # C CNT
1101 1101 1 0.000000 2.039000 -3.531000 110.522003 # C CNT
1102 1102 1 0.000000 3.124000 -2.621000 110.522003 # C CNT
1103 1103 1 0.000000 3.531000 -2.039000 111.750000 # C CNT
1104 1104 1 0.000000 4.016000 -0.708000 111.750000 # C CNT
1105 1105 1 0.000000 4.078000 0.000000 112.977997 # C CNT
1106 1106 1 0.000000 3.832000 1.395000 112.977997 # C CNT
1107 1107 1 0.000000 3.531000 2.039000 114.206001 # C CNT
1108 1108 1 0.000000 2.621000 3.124000 114.206001 # C CNT
1109 1109 1 0.000000 2.039000 3.531000 112.977997 # C CNT
1110 1110 1 0.000000 0.708000 4.016000 112.977997 # C CNT
1111 1111 1 0.000000 0.000000 4.078000 114.206001 # C CNT
1112 1112 1 0.000000 -1.395000 3.832000 114.206001 # C CNT
1113 1113 1 0.000000 -2.039000 3.531000 112.977997 # C CNT
1114 1114 1 0.000000 -3.124000 2.621000 112.977997 # C CNT
1115 1115 1 0.000000 -3.531000 2.039000 114.206001 # C CNT
1116 1116 1 0.000000 -4.016000 0.708000 114.206001 # C CNT
1117 1117 1 0.000000 -4.078000 0.000000 112.977997 # C CNT
1118 1118 1 0.000000 -3.832000 -1.395000 112.977997 # C CNT
1119 1119 1 0.000000 -3.531000 -2.039000 114.206001 # C CNT
1120 1120 1 0.000000 -2.621000 -3.124000 114.206001 # C CNT
1121 1121 1 0.000000 -2.039000 -3.531000 112.977997 # C CNT
1122 1122 1 0.000000 -0.708000 -4.016000 112.977997 # C CNT
1123 1123 1 0.000000 0.000000 -4.078000 114.206001 # C CNT
1124 1124 1 0.000000 1.395000 -3.832000 114.206001 # C CNT
1125 1125 1 0.000000 2.039000 -3.531000 112.977997 # C CNT
1126 1126 1 0.000000 3.124000 -2.621000 112.977997 # C CNT
1127 1127 1 0.000000 3.531000 -2.039000 114.206001 # C CNT
1128 1128 1 0.000000 4.016000 -0.708000 114.206001 # C CNT
1129 1129 1 0.000000 4.078000 0.000000 115.433998 # C CNT
1130 1130 1 0.000000 3.832000 1.395000 115.433998 # C CNT
1131 1131 1 0.000000 3.531000 2.039000 116.662003 # C CNT
1132 1132 1 0.000000 2.621000 3.124000 116.662003 # C CNT
1133 1133 1 0.000000 2.039000 3.531000 115.433998 # C CNT
1134 1134 1 0.000000 0.708000 4.016000 115.433998 # C CNT
1135 1135 1 0.000000 0.000000 4.078000 116.662003 # C CNT
1136 1136 1 0.000000 -1.395000 3.832000 116.662003 # C CNT
1137 1137 1 0.000000 -2.039000 3.531000 115.433998 # C CNT
1138 1138 1 0.000000 -3.124000 2.621000 115.433998 # C CNT
1139 1139 1 0.000000 -3.531000 2.039000 116.662003 # C CNT
1140 1140 1 0.000000 -4.016000 0.708000 116.662003 # C CNT
1141 1141 1 0.000000 -4.078000 0.000000 115.433998 # C CNT
1142 1142 1 0.000000 -3.832000 -1.395000 115.433998 # C CNT
1143 1143 1 0.000000 -3.531000 -2.039000 116.662003 # C CNT
1144 1144 1 0.000000 -2.621000 -3.124000 116.662003 # C CNT
1145 1145 1 0.000000 -2.039000 -3.531000 115.433998 # C CNT
1146 1146 1 0.000000 -0.708000 -4.016000 115.433998 # C CNT
1147 1147 1 0.000000 0.000000 -4.078000 116.662003 # C CNT
1148 1148 1 0.000000 1.395000 -3.832000 116.662003 # C CNT
1149 1149 1 0.000000 2.039000 -3.531000 115.433998 # C CNT
1150 1150 1 0.000000 3.124000 -2.621000 115.433998 # C CNT
1151 1151 1 0.000000 3.531000 -2.039000 116.662003 # C CNT
1152 1152 1 0.000000 4.016000 -0.708000 116.662003 # C CNT
1153 1153 1 0.000000 4.078000 0.000000 117.889999 # C CNT
1154 1154 1 0.000000 3.832000 1.395000 117.889999 # C CNT
1155 1155 1 0.000000 3.531000 2.039000 119.117996 # C CNT
1156 1156 1 0.000000 2.621000 3.124000 119.117996 # C CNT
1157 1157 1 0.000000 2.039000 3.531000 117.889999 # C CNT
1158 1158 1 0.000000 0.708000 4.016000 117.889999 # C CNT
1159 1159 1 0.000000 0.000000 4.078000 119.117996 # C CNT
1160 1160 1 0.000000 -1.395000 3.832000 119.117996 # C CNT
1161 1161 1 0.000000 -2.039000 3.531000 117.889999 # C CNT
1162 1162 1 0.000000 -3.124000 2.621000 117.889999 # C CNT
1163 1163 1 0.000000 -3.531000 2.039000 119.117996 # C CNT
1164 1164 1 0.000000 -4.016000 0.708000 119.117996 # C CNT
1165 1165 1 0.000000 -4.078000 0.000000 117.889999 # C CNT
1166 1166 1 0.000000 -3.832000 -1.395000 117.889999 # C CNT
1167 1167 1 0.000000 -3.531000 -2.039000 119.117996 # C CNT
1168 1168 1 0.000000 -2.621000 -3.124000 119.117996 # C CNT
1169 1169 1 0.000000 -2.039000 -3.531000 117.889999 # C CNT
1170 1170 1 0.000000 -0.708000 -4.016000 117.889999 # C CNT
1171 1171 1 0.000000 0.000000 -4.078000 119.117996 # C CNT
1172 1172 1 0.000000 1.395000 -3.832000 119.117996 # C CNT
1173 1173 1 0.000000 2.039000 -3.531000 117.889999 # C CNT
1174 1174 1 0.000000 3.124000 -2.621000 117.889999 # C CNT
1175 1175 1 0.000000 3.531000 -2.039000 119.117996 # C CNT
1176 1176 1 0.000000 4.016000 -0.708000 119.117996 # C CNT
1177 1177 1 0.000000 4.078000 0.000000 120.346001 # C CNT
1178 1178 1 0.000000 3.832000 1.395000 120.346001 # C CNT
1179 1179 1 0.000000 3.531000 2.039000 121.573997 # C CNT
1180 1180 1 0.000000 2.621000 3.124000 121.573997 # C CNT
1181 1181 1 0.000000 2.039000 3.531000 120.346001 # C CNT
1182 1182 1 0.000000 0.708000 4.016000 120.346001 # C CNT
1183 1183 1 0.000000 0.000000 4.078000 121.573997 # C CNT
1184 1184 1 0.000000 -1.395000 3.832000 121.573997 # C CNT
1185 1185 1 0.000000 -2.039000 3.531000 120.346001 # C CNT
1186 1186 1 0.000000 -3.124000 2.621000 120.346001 # C CNT
1187 1187 1 0.000000 -3.531000 2.039000 121.573997 # C CNT
1188 1188 1 0.000000 -4.016000 0.708000 121.573997 # C CNT
1189 1189 1 0.000000 -4.078000 0.000000 120.346001 # C CNT
1190 1190 1 0.000000 -3.832000 -1.395000 120.346001 # C CNT
1191 1191 1 0.000000 -3.531000 -2.039000 121.573997 # C CNT
1192 1192 1 0.000000 -2.621000 -3.124000 121.573997 # C CNT
1193 1193 1 0.000000 -2.039000 -3.531000 120.346001 # C CNT
1194 1194 1 0.000000 -0.708000 -4.016000 120.346001 # C CNT
1195 1195 1 0.000000 0.000000 -4.078000 121.573997 # C CNT
1196 1196 1 0.000000 1.395000 -3.832000 121.573997 # C CNT
1197 1197 1 0.000000 2.039000 -3.531000 120.346001 # C CNT
1198 1198 1 0.000000 3.124000 -2.621000 120.346001 # C CNT
1199 1199 1 0.000000 3.531000 -2.039000 121.573997 # C CNT
1200 1200 1 0.000000 4.016000 -0.708000 121.573997 # C CNT
1201 1201 1 0.000000 4.078000 0.000000 122.802002 # C CNT
1202 1202 1 0.000000 3.832000 1.395000 122.802002 # C CNT
1203 1203 1 0.000000 3.531000 2.039000 124.029999 # C CNT
1204 1204 1 0.000000 2.621000 3.124000 124.029999 # C CNT
1205 1205 1 0.000000 2.039000 3.531000 122.802002 # C CNT
1206 1206 1 0.000000 0.708000 4.016000 122.802002 # C CNT
1207 1207 1 0.000000 0.000000 4.078000 124.029999 # C CNT
1208 1208 1 0.000000 -1.395000 3.832000 124.029999 # C CNT
1209 1209 1 0.000000 -2.039000 3.531000 122.802002 # C CNT
1210 1210 1 0.000000 -3.124000 2.621000 122.802002 # C CNT
1211 1211 1 0.000000 -3.531000 2.039000 124.029999 # C CNT
1212 1212 1 0.000000 -4.016000 0.708000 124.029999 # C CNT
1213 1213 1 0.000000 -4.078000 0.000000 122.802002 # C CNT
1214 1214 1 0.000000 -3.832000 -1.395000 122.802002 # C CNT
1215 1215 1 0.000000 -3.531000 -2.039000 124.029999 # C CNT
1216 1216 1 0.000000 -2.621000 -3.124000 124.029999 # C CNT
1217 1217 1 0.000000 -2.039000 -3.531000 122.802002 # C CNT
1218 1218 1 0.000000 -0.708000 -4.016000 122.802002 # C CNT
1219 1219 1 0.000000 0.000000 -4.078000 124.029999 # C CNT
1220 1220 1 0.000000 1.395000 -3.832000 124.029999 # C CNT
1221 1221 1 0.000000 2.039000 -3.531000 122.802002 # C CNT
1222 1222 1 0.000000 3.124000 -2.621000 122.802002 # C CNT
1223 1223 1 0.000000 3.531000 -2.039000 124.029999 # C CNT
1224 1224 1 0.000000 4.016000 -0.708000 124.029999 # C CNT
1225 1 2 0.000000 0.789000 0.105000 116.539001 # H HOH
1226 1 2 0.000000 -0.809000 -0.063000 116.831001 # H HOH
1227 1 3 0.000000 0.030000 -0.545000 116.578003 # O HOH
1228 2 2 0.000000 0.057000 -0.582000 49.972000 # H HOH
1229 2 2 0.000000 0.388000 0.568000 51.084000 # H HOH
1230 2 3 0.000000 -0.178000 0.335000 50.292999 # O HOH
1231 3 2 0.000000 0.417000 -0.578000 108.412003 # H HOH
1232 3 2 0.000000 -0.138000 0.650000 107.489998 # H HOH
1233 3 3 0.000000 -0.315000 -0.284000 107.796997 # O HOH
1234 4 2 0.000000 0.370000 0.352000 104.607002 # H HOH
1235 4 2 0.000000 -0.478000 -0.367000 105.802002 # H HOH
1236 4 3 0.000000 0.398000 0.045000 105.557999 # O HOH
1237 5 2 0.000000 0.670000 0.658000 90.806000 # H HOH
1238 5 2 0.000000 0.264000 -0.531000 89.762001 # H HOH
1239 5 3 0.000000 0.126000 0.431000 89.998001 # O HOH
1240 6 2 0.000000 -0.006000 -0.859000 26.290001 # H HOH
1241 6 2 0.000000 -0.630000 -0.204000 27.649000 # H HOH
1242 6 3 0.000000 0.186000 -0.271000 27.076000 # O HOH
1243 7 2 0.000000 -0.156000 -0.798000 13.546000 # H HOH
1244 7 2 0.000000 0.250000 0.760000 13.817000 # H HOH
1245 7 3 0.000000 -0.508000 0.133000 13.643000 # O HOH
1246 8 2 0.000000 0.624000 0.214000 80.469002 # H HOH
1247 8 2 0.000000 -0.645000 -0.079000 79.485001 # H HOH
1248 8 3 0.000000 -0.271000 -0.226000 80.400002 # O HOH
1249 9 2 0.000000 0.280000 -0.182000 23.927000 # H HOH
1250 9 2 0.000000 -0.224000 0.772000 25.153000 # H HOH
1251 9 3 0.000000 0.562000 0.296000 24.759001 # O HOH
1252 10 2 0.000000 -0.710000 -0.392000 65.281998 # H HOH
1253 10 2 0.000000 0.755000 0.330000 65.292000 # H HOH
1254 10 3 0.000000 -0.232000 0.487000 65.290001 # O HOH
1255 11 2 0.000000 0.107000 -0.310000 2.633000 # H HOH
1256 11 2 0.000000 0.082000 0.524000 4.037000 # H HOH
1257 11 3 0.000000 -0.012000 -0.381000 3.623000 # O HOH
1258 12 2 0.000000 -0.268000 0.773000 45.191002 # H HOH
1259 12 2 0.000000 0.331000 -0.745000 45.237999 # H HOH
1260 12 3 0.000000 -0.439000 -0.164000 45.497002 # O HOH
1261 13 2 0.000000 0.366000 -0.652000 94.607002 # H HOH
1262 13 2 0.000000 -0.139000 0.804000 94.068001 # H HOH
1263 13 3 0.000000 -0.417000 -0.035000 94.535004 # O HOH
1264 14 2 0.000000 -0.321000 0.501000 8.381000 # H HOH
1265 14 2 0.000000 0.598000 -0.353000 9.427000 # H HOH
1266 14 3 0.000000 -0.174000 -0.399000 8.793000 # O HOH
1267 15 2 0.000000 0.289000 -0.566000 124.402000 # H HOH
1268 15 2 0.000000 -0.069000 0.517000 125.571999 # H HOH
1269 15 3 0.000000 -0.451000 -0.075000 124.862999 # O HOH
1270 16 2 0.000000 0.429000 -0.451000 92.617996 # H HOH
1271 16 2 0.000000 -0.744000 -0.579000 91.488998 # H HOH
1272 16 3 0.000000 -0.442000 -0.077000 92.297997 # O HOH
1273 17 2 0.000000 -0.380000 0.608000 114.996002 # H HOH
1274 17 2 0.000000 0.161000 -0.702000 114.184998 # H HOH
1275 17 3 0.000000 0.418000 0.184000 114.568001 # O HOH
1276 18 2 0.000000 0.650000 -0.362000 34.186001 # H HOH
1277 18 2 0.000000 -0.706000 0.021000 35.009998 # H HOH
1278 18 3 0.000000 0.191000 0.349000 34.717999 # O HOH
1279 19 2 0.000000 -0.534000 0.062000 121.366997 # H HOH
1280 19 2 0.000000 0.256000 0.518000 122.722000 # H HOH
1281 19 3 0.000000 -0.205000 -0.240000 122.262001 # O HOH
1282 20 2 0.000000 0.291000 0.839000 69.683998 # H HOH
1283 20 2 0.000000 -0.459000 -0.516000 70.200996 # H HOH
1284 20 3 0.000000 -0.589000 0.439000 69.939003 # O HOH
1285 21 2 0.000000 0.744000 0.241000 87.402000 # H HOH
1286 21 2 0.000000 -0.671000 -0.301000 88.009003 # H HOH
1287 21 3 0.000000 -0.024000 0.460000 88.003998 # O HOH
1288 22 2 0.000000 -0.681000 0.333000 109.811996 # H HOH
1289 22 2 0.000000 0.647000 -0.420000 110.391998 # H HOH
1290 22 3 0.000000 0.249000 0.466000 110.153999 # O HOH
1291 23 2 0.000000 -0.267000 -0.576000 60.208000 # H HOH
1292 23 2 0.000000 0.487000 0.299000 61.362000 # H HOH
1293 23 3 0.000000 -0.224000 0.315000 60.660000 # O HOH
1294 24 2 0.000000 0.662000 0.183000 53.334000 # H HOH
1295 24 2 0.000000 -0.744000 -0.143000 52.570999 # H HOH
1296 24 3 0.000000 0.174000 -0.484000 52.771000 # O HOH
1297 25 2 0.000000 0.540000 -0.740000 68.482002 # H HOH
1298 25 2 0.000000 0.090000 0.228000 67.247002 # H HOH
1299 25 3 0.000000 -0.197000 -0.522000 67.841003 # O HOH
1300 26 2 0.000000 0.821000 -0.121000 30.517000 # H HOH
1301 26 2 0.000000 0.206000 0.681000 29.235001 # H HOH
1302 26 3 0.000000 0.078000 -0.098000 29.847000 # O HOH
1303 27 2 0.000000 0.265000 -0.544000 119.636002 # H HOH
1304 27 2 0.000000 0.251000 0.540000 118.416000 # H HOH
1305 27 3 0.000000 -0.314000 0.051000 119.079002 # O HOH
1306 28 2 0.000000 -0.900000 0.199000 19.691999 # H HOH
1307 28 2 0.000000 0.285000 0.600000 18.643000 # H HOH
1308 28 3 0.000000 -0.315000 -0.137000 18.954000 # O HOH
1309 29 2 0.000000 -0.631000 0.123000 42.356998 # H HOH
1310 29 2 0.000000 0.560000 0.169000 43.473999 # H HOH
1311 29 3 0.000000 0.078000 -0.411000 42.818001 # O HOH
1312 30 2 0.000000 0.646000 0.199000 6.657000 # H HOH
1313 30 2 0.000000 -0.507000 -0.434000 5.690000 # H HOH
1314 30 3 0.000000 -0.319000 0.246000 6.398000 # O HOH
1315 31 2 0.000000 0.521000 0.705000 73.363998 # H HOH
1316 31 2 0.000000 -0.384000 -0.551000 72.847000 # H HOH
1317 31 3 0.000000 -0.365000 0.438000 72.985001 # O HOH
1318 32 2 0.000000 0.260000 0.183000 38.341000 # H HOH
1319 32 2 0.000000 0.283000 0.347000 36.716000 # H HOH
1320 32 3 0.000000 -0.207000 -0.056000 37.488998 # O HOH
1321 33 2 0.000000 -0.688000 0.179000 40.102001 # H HOH
1322 33 2 0.000000 0.621000 -0.399000 40.888000 # H HOH
1323 33 3 0.000000 0.170000 0.427000 40.549999 # O HOH
1324 34 2 0.000000 0.807000 -0.294000 20.608999 # H HOH
1325 34 2 0.000000 -0.099000 -0.312000 21.968000 # H HOH
1326 34 3 0.000000 0.319000 0.273000 21.274000 # O HOH
1327 35 2 0.000000 0.307000 -0.643000 77.819000 # H HOH
1328 35 2 0.000000 -0.410000 0.759000 77.388000 # H HOH
1329 35 3 0.000000 0.458000 0.265000 77.429001 # O HOH
1330 36 2 0.000000 -0.609000 0.359000 10.853000 # H HOH
1331 36 2 0.000000 0.586000 0.142000 11.944000 # H HOH
1332 36 3 0.000000 -0.319000 -0.167000 11.652000 # O HOH
1333 37 2 0.000000 0.218000 0.577000 56.157001 # H HOH
1334 37 2 0.000000 -0.165000 -0.522000 55.012001 # H HOH
1335 37 3 0.000000 0.172000 -0.399000 55.944000 # O HOH
1336 38 2 0.000000 -0.108000 0.460000 102.446999 # H HOH
1337 38 2 0.000000 0.195000 -0.530000 101.183998 # H HOH
1338 38 3 0.000000 -0.315000 0.274000 101.486000 # O HOH
1339 39 2 0.000000 0.170000 -0.642000 17.080000 # H HOH
1340 39 2 0.000000 0.132000 -0.353000 15.474000 # H HOH
1341 39 3 0.000000 -0.216000 -0.061000 16.364000 # O HOH
1342 40 2 0.000000 0.484000 0.191000 83.918999 # H HOH
1343 40 2 0.000000 0.077000 -0.107000 82.365997 # H HOH
1344 40 3 0.000000 -0.278000 0.040000 83.289001 # O HOH
1345 41 2 0.000000 0.705000 0.225000 58.362999 # H HOH
1346 41 2 0.000000 -0.726000 -0.233000 57.723000 # H HOH
1347 41 3 0.000000 -0.288000 0.329000 58.424000 # O HOH
1348 42 2 0.000000 -0.351000 0.741000 85.652000 # H HOH
1349 42 2 0.000000 0.228000 -0.786000 85.646004 # H HOH
1350 42 3 0.000000 -0.532000 -0.203000 85.929001 # O HOH
1351 43 2 0.000000 0.223000 0.624000 32.499001 # H HOH
1352 43 2 0.000000 -0.850000 -0.229000 31.613001 # H HOH
1353 43 3 0.000000 -0.220000 -0.265000 32.388000 # O HOH
1354 44 2 0.000000 -0.799000 -0.057000 97.250000 # H HOH
1355 44 2 0.000000 0.484000 0.358000 96.329002 # H HOH
1356 44 3 0.000000 -0.205000 -0.346000 96.499001 # O HOH
1357 45 2 0.000000 0.645000 0.322000 112.537003 # H HOH
1358 45 2 0.000000 -0.724000 -0.228000 111.835999 # H HOH
1359 45 3 0.000000 -0.355000 0.348000 112.564003 # O HOH
1360 46 2 0.000000 -0.797000 0.259000 63.383999 # H HOH
1361 46 2 0.000000 0.671000 -0.453000 63.303001 # H HOH
1362 46 3 0.000000 0.189000 0.422000 63.335999 # O HOH
1363 47 2 0.000000 0.290000 -0.862000 75.787003 # H HOH
1364 47 2 0.000000 -0.754000 0.110000 74.990997 # H HOH
1365 47 3 0.000000 0.039000 -0.490000 74.892998 # O HOH
1366 48 2 0.000000 -0.545000 0.229000 99.402000 # H HOH
1367 48 2 0.000000 0.783000 0.071000 98.466003 # H HOH
1368 48 3 0.000000 0.242000 -0.350000 99.193001 # O HOH

 Bonds

1 1 1 24
2 1 1 2
3 1 2 3
4 1 3 4
5 1 3 26
6 1 4 29
7 1 4 5
8 1 5 6
9 1 6 7
10 1 7 8
11 1 7 30
12 1 8 33
13 1 8 9
14 1 9 10
15 1 10 11
16 1 11 12
17 1 11 34
18 1 12 37
19 1 12 13
20 1 13 14
21 1 14 15
22 1 15 16
23 1 15 38
24 1 16 17
25 1 16 41
26 1 17 18
27 1 18 19
28 1 19 20
29 1 19 42
30 1 20 21
31 1 20 45
32 1 21 22
33 1 22 23
34 1 23 24
35 1 23 46
36 1 24 25
37 1 25 48
38 1 25 26
39 1 26 27
40 1 27 28
41 1 27 50
42 1 28 53
43 1 28 29
44 1 29 30
45 1 30 31
46 1 31 32
47 1 31 54
48 1 32 57
49 1 32 33
50 1 33 34
51 1 34 35
52 1 35 36
53 1 35 58
54 1 36 61
55 1 36 37
56 1 37 38
57 1 38 39
58 1 39 40
59 1 39 62
60 1 40 41
61 1 40 65
62 1 41 42
63 1 42 43
64 1 43 44
65 1 43 66
66 1 44 45
67 1 44 69
68 1 45 46
69 1 46 47
70 1 47 48
71 1 47 70
72 1 48 49
73 1 49 50
74 1 49 72
75 1 50 51
76 1 51 74
77 1 51 52
78 1 52 53
79 1 52 77
80 1 53 54
81 1 54 55
82 1 55 56
83 1 55 78
84 1 56 57
85 1 56 81
86 1 57 58
87 1 58 59
88 1 59 60
89 1 59 82
90 1 60 61
91 1 60 85
92 1 61 62
93 1 62 63
94 1 63 64
95 1 63 86
96 1 64 89
97 1 64 65
98 1 65 66
99 1 66 67
100 1 67 90
101 1 67 68
102 1 68 69
103 1 68 93
104 1 69 70
105 1 70 71
106 1 71 94
107 1 71 72
108 1 72 73
109 1 73 74
110 1 73 96
111 1 74 75
112 1 75 98
113 1 75 76
114 1 76 101
115 1 76 77
116 1 77 78
117 1 78 79
118 1 79 80
119 1 79 102
120 1 80 105
121 1 80 81
122 1 81 82
123 1 82 83
124 1 83 84
125 1 83 106
126 1 84 109
127 1 84 85
128 1 85 86
129 1 86 87
130 1 87 88
131 1 87 110
132 1 88 89
133 1 88 113
134 1 89 90
135 1 90 91
136 1 91 114
137 1 91 92
138 1 92 117
139 1 92 93
140 1 93 94
141 1 94 95
142 1 95 118
143 1 95 96
144 1 96 97
145 1 97 98
146 1 97 120
147 1 98 99
148 1 99 100
149 1 99 122
150 1 100 101
151 1 100 125
152 1 101 102
153 1 102 103
154 1 103 104
155 1 103 126
156 1 104 105
157 1 104 129
158 1 105 106
159 1 106 107
160 1 107 108
161 1 107 130
162 1 108 109
163 1 108 133
164 1 109 110
165 1 110 111
166 1 111 112
167 1 111 134
168 1 112 113
169 1 112 137
170 1 113 114
171 1 114 115
172 1 115 116
173 1 115 138
174 1 116 117
175 1 116 141
176 1 117 118
177 1 118 119
178 1 119 120
179 1 119 142
180 1 120 121
181 1 121 144
182 1 121 122
183 1 122 123
184 1 123 124
185 1 123 146
186 1 124 149
187 1 124 125
188 1 125 126
189 1 126 127
190 1 127 128
191 1 127 150
192 1 128 153
193 1 128 129
194 1 129 130
195 1 130 131
196 1 131 132
197 1 131 154
198 1 132 157
199 1 132 133
200 1 133 134
201 1 134 135
202 1 135 136
203 1 135 158
204 1 136 137
205 1 136 161
206 1 137 138
207 1 138 139
208 1 139 140
209 1 139 162
210 1 140 141
211 1 140 165
212 1 141 142
213 1 142 143
214 1 143 144
215 1 143 166
216 1 144 145
217 1 145 168
218 1 145 146
219 1 146 147
220 1 147 148
221 1 147 170
222 1 148 173
223 1 148 149
224 1 149 150
225 1 150 151
226 1 151 152
227 1 151 174
228 1 152 177
229 1 152 153
230 1 153 154
231 1 154 155
232 1 155 156
233 1 155 178
234 1 156 157
235 1 156 181
236 1 157 158
237 1 158 159
238 1 159 160
239 1 159 182
240 1 160 161
241 1 160 185
242 1 161 162
243 1 162 163
244 1 163 164
245 1 163 186
246 1 164 165
247 1 164 189
248 1 165 166
249 1 166 167
250 1 167 168
251 1 167 190
252 1 168 169
253 1 169 170
254 1 169 192
255 1 170 171
256 1 171 194
257 1 171 172
258 1 172 197
259 1 172 173
260 1 173 174
261 1 174 175
262 1 175 176
263 1 175 198
264 1 176 201
265 1 176 177
266 1 177 178
267 1 178 179
268 1 179 180
269 1 179 202
270 1 180 205
271 1 180 181
272 1 181 182
273 1 182 183
274 1 183 184
275 1 183 206
276 1 184 185
277 1 184 209
278 1 185 186
279 1 186 187
280 1 187 210
281 1 187 188
282 1 188 213
283 1 188 189
284 1 189 190
285 1 190 191
286 1 191 214
287 1 191 192
288 1 192 193
289 1 193 194
290 1 193 216
291 1 194 195
292 1 195 218
293 1 195 196
294 1 196 197
295 1 196 221
296 1 197 198
297 1 198 199
298 1 199 200
299 1 199 222
300 1 200 201
301 1 200 225
302 1 201 202
303 1 202 203
304 1 203 204
305 1 203 226
306 1 204 205
307 1 204 229
308 1 205 206
309 1 206 207
310 1 207 208
311 1 207 230
312 1 208 209
313 1 208 233
314 1 209 210
315 1 210 211
316 1 211 234
317 1 211 212
318 1 212 213
319 1 212 237
320 1 213 214
321 1 214 215
322 1 215 238
323 1 215 216
324 1 216 217
325 1 217 218
326 1 217 240
327 1 218 219
328 1 219 220
329 1 219 242
330 1 220 221
331 1 220 245
332 1 221 222
333 1 222 223
334 1 223 224
335 1 223 246
336 1 224 249
337 1 224 225
338 1 225 226
339 1 226 227
340 1 227 228
341 1 227 250
342 1 228 229
343 1 228 253
344 1 229 230
345 1 230 231
346 1 231 232
347 1 231 254
348 1 232 257
349 1 232 233
350 1 233 234
351 1 234 235
352 1 235 236
353 1 235 258
354 1 236 261
355 1 236 237
356 1 237 238
357 1 238 239
358 1 239 240
359 1 239 262
360 1 240 241
361 1 241 264
362 1 241 242
363 1 242 243
364 1 243 244
365 1 243 266
366 1 244 269
367 1 244 245
368 1 245 246
369 1 246 247
370 1 247 248
371 1 247 270
372 1 248 273
373 1 248 249
374 1 249 250
375 1 250 251
376 1 251 252
377 1 251 274
378 1 252 253
379 1 252 277
380 1 253 254
381 1 254 255
382 1 255 256
383 1 255 278
384 1 256 257
385 1 256 281
386 1 257 258
387 1 258 259
388 1 259 260
389 1 259 282
390 1 260 261
391 1 260 285
392 1 261 262
393 1 262 263
394 1 263 264
395 1 263 286
396 1 264 265
397 1 265 288
398 1 265 266
399 1 266 267
400 1 267 268
401 1 267 290
402 1 268 293
403 1 268 269
404 1 269 270
405 1 270 271
406 1 271 272
407 1 271 294
408 1 272 297
409 1 272 273
410 1 273 274
411 1 274 275
412 1 275 276
413 1 275 298
414 1 276 301
415 1 276 277
416 1 277 278
417 1 278 279
418 1 279 280
419 1 279 302
420 1 280 281
421 1 280 305
422 1 281 282
423 1 282 283
424 1 283 284
425 1 283 306
426 1 284 285
427 1 284 309
428 1 285 286
429 1 286 287
430 1 287 288
431 1 287 310
432 1 288 289
433 1 289 290
434 1 289 312
435 1 290 291
436 1 291 314
437 1 291 292
438 1 292 293
439 1 292 317
440 1 293 294
441 1 294 295
442 1 295 296
443 1 295 318
444 1 296 297
445 1 296 321
446 1 297 298
447 1 298 299
448 1 299 300
449 1 299 322
450 1 300 301
451 1 300 325
452 1 301 302
453 1 302 303
454 1 303 304
455 1 303 326
456 1 304 305
457 1 304 329
458 1 305 306
459 1 306 307
460 1 307 330
461 1 307 308
462 1 308 309
463 1 308 333
464 1 309 310
465 1 310 311
466 1 311 334
467 1 311 312
468 1 312 313
469 1 313 314
470 1 313 336
471 1 314 315
472 1 315 338
473 1 315 316
474 1 316 317
475 1 316 341
476 1 317 318
477 1 318 319
478 1 319 320
479 1 319 342
480 1 320 345
481 1 320 321
482 1 321 322
483 1 322 323
484 1 323 324
485 1 323 346
486 1 324 325
487 1 324 349
488 1 325 326
489 1 326 327
490 1 327 328
491 1 327 350
492 1 328 353
493 1 328 329
494 1 329 330
495 1 330 331
496 1 331 354
497 1 331 332
498 1 332 357
499 1 332 333
500 1 333 334
501 1 334 335
502 1 335 358
503 1 335 336
504 1 336 337
505 1 337 338
506 1 337 360
507 1 338 339
508 1 339 340
509 1 339 362
510 1 340 365
511 1 340 341
512 1 341 342
513 1 342 343
514 1 343 344
515 1 343 366
516 1 344 345
517 1 344 369
518 1 345 346
519 1 346 347
520 1 347 348
521 1 347 370
522 1 348 349
523 1 348 373
524 1 349 350
525 1 350 351
526 1 351 352
527 1 351 374
528 1 352 353
529 1 352 377
530 1 353 354
531 1 354 355
532 1 355 356
533 1 355 378
534 1 356 357
535 1 356 381
536 1 357 358
537 1 358 359
538 1 359 360
539 1 359 382
540 1 360 361
541 1 361 384
542 1 361 362
543 1 362 363
544 1 363 364
545 1 363 386
546 1 364 389
547 1 364 365
548 1 365 366
549 1 366 367
550 1 367 368
551 1 367 390
552 1 368 393
553 1 368 369
554 1 369 370
555 1 370 371
556 1 371 372
557 1 371 394
558 1 372 397
559 1 372 373
560 1 373 374
561 1 374 375
562 1 375 376
563 1 375 398
564 1 376 377
565 1 376 401
566 1 377 378
567 1 378 379
568 1 379 380
569 1 379 402
570 1 380 381
571 1 380 405
572 1 381 382
573 1 382 383
574 1 383 384
575 1 383 406
576 1 384 385
577 1 385 408
578 1 385 386
579 1 386 387
580 1 387 388
581 1 387 410
582 1 388 413
583 1 388 389
584 1 389 390
585 1 390 391
586 1 391 392
587 1 391 414
588 1 392 417
589 1 392 393
590 1 393 394
591 1 394 395
592 1 395 396
593 1 395 418
594 1 396 397
595 1 396 421
596 1 397 398
597 1 398 399
598 1 399 400
599 1 399 422
600 1 400 401
601 1 400 425
602 1 401 402
603 1 402 403
604 1 403 404
605 1 403 426
606 1 404 405
607 1 404 429
608 1 405 406
609 1 406 407
610 1 407 408
611 1 407 430
612 1 408 409
613 1 409 410
614 1 409 432
615 1 410 411
616 1 411 434
617 1 411 412
618 1 412 413
619 1 412 437
620 1 413 414
621 1 414 415
622 1 415 416
623 1 415 438
624 1 416 441
625 1 416 417
626 1 417 418
627 1 418 419
628 1 419 420
629 1 419 442
630 1 420 421
631 1 420 445
632 1 421 422
633 1 422 423
634 1 423 424
635 1 423 446
636 1 424 449
637 1 424 425
638 1 425 426
639 1 426 427
640 1 427 450
641 1 427 428
642 1 428 453
643 1 428 429
644 1 429 430
645 1 430 431
646 1 431 454
647 1 431 432
648 1 432 433
649 1 433 434
650 1 433 456
651 1 434 435
652 1 435 458
653 1 435 436
654 1 436 461
655 1 436 437
656 1 437 438
657 1 438 439
658 1 439 440
659 1 439 462
660 1 440 441
661 1 440 465
662 1 441 442
663 1 442 443
664 1 443 444
665 1 443 466
666 1 444 469
667 1 444 445
668 1 445 446
669 1 446 447
670 1 447 448
671 1 447 470
672 1 448 449
673 1 448 473
674 1 449 450
675 1 450 451
676 1 451 474
677 1 451 452
678 1 452 453
679 1 452 477
680 1 453 454
681 1 454 455
682 1 455 478
683 1 455 456
684 1 456 457
685 1 457 458
686 1 457 480
687 1 458 459
688 1 459 460
689 1 459 482
690 1 460 461
691 1 460 485
692 1 461 462
693 1 462 463
694 1 463 464
695 1 463 486
696 1 464 465
697 1 464 489
698 1 465 466
699 1 466 467
700 1 467 468
701 1 467 490
702 1 468 469
703 1 468 493
704 1 469 470
705 1 470 471
706 1 471 472
707 1 471 494
708 1 472 497
709 1 472 473
710 1 473 474
711 1 474 475
712 1 475 476
713 1 475 498
714 1 476 477
715 1 476 501
716 1 477 478
717 1 478 479
718 1 479 480
719 1 479 502
720 1 480 481
721 1 481 504
722 1 481 482
723 1 482 483
724 1 483 484
725 1 483 506
726 1 484 509
727 1 484 485
728 1 485 486
729 1 486 487
730 1 487 488
731 1 487 510
732 1 488 513
733 1 488 489
734 1 489 490
735 1 490 491
736 1 491 492
737 1 491 514
738 1 492 493
739 1 492 517
740 1 493 494
741 1 494 495
742 1 495 496
743 1 495 518
744 1 496 497
745 1 496 521
746 1 497 498
747 1 498 499
748 1 499 500
749 1 499 522
750 1 500 501
751 1 500 525
752 1 501 502
753 1 502 503
754 1 503 504
755 1 503 526
756 1 504 505
757 1 505 528
758 1 505 506
759 1 506 507
760 1 507 508
761 1 507 530
762 1 508 533
763 1 508 509
764 1 509 510
765 1 510 511
766 1 511 512
767 1 511 534
768 1 512 537
769 1 512 513
770 1 513 514
771 1 514 515
772 1 515 516
773 1 515 538
774 1 516 541
775 1 516 517
776 1 517 518
777 1 518 519
778 1 519 520
779 1 519 542
780 1 520 521
781 1 520 545
782 1 521 522
783 1 522 523
784 1 523 524
785 1 523 546
786 1 524 525
787 1 524 549
788 1 525 526
789 1 526 527
790 1 527 528
791 1 527 550
792 1 528 529
793 1 529 530
794 1 529 552
795 1 530 531
796 1 531 554
797 1 531 532
798 1 532 557
799 1 532 533
800 1 533 534
801 1 534 535
802 1 535 536
803 1 535 558
804 1 536 537
805 1 536 561
806 1 537 538
807 1 538 539
808 1 539 540
809 1 539 562
810 1 540 565
811 1 540 541
812 1 541 542
813 1 542 543
814 1 543 544
815 1 543 566
816 1 544 545
817 1 544 569
818 1 545 546
819 1 546 547
820 1 547 570
821 1 547 548
822 1 548 549
823 1 548 573
824 1 549 550
825 1 550 551
826 1 551 574
827 1 551 552
828 1 552 553
829 1 553 554
830 1 553 576
831 1 554 555
832 1 555 578
833 1 555 556
834 1 556 557
835 1 556 581
836 1 557 558
837 1 558 559
838 1 559 560
839 1 559 582
840 1 560 561
841 1 560 585
842 1 561 562
843 1 562 563
844 1 563 564
845 1 563 586
846 1 564 565
847 1 564 589
848 1 565 566
849 1 566 567
850 1 567 568
851 1 567 590
852 1 568 593
853 1 568 569
854 1 569 570
855 1 570 571
856 1 571 594
857 1 571 572
858 1 572 573
859 1 572 597
860 1 573 574
861 1 574 575
862 1 575 598
863 1 575 576
864 1 576 577
865 1 577 578
866 1 577 600
867 1 578 579
868 1 579 580
869 1 579 602
870 1 580 605
871 1 580 581
872 1 581 582
873 1 582 583
874 1 583 584
875 1 583 606
876 1 584 609
877 1 584 585
878 1 585 586
879 1 586 587
880 1 587 588
881 1 587 610
882 1 588 589
883 1 588 613
884 1 589 590
885 1 590 591
886 1 591 592
887 1 591 614
888 1 592 593
889 1 592 617
890 1 593 594
891 1 594 595
892 1 595 596
893 1 595 618
894 1 596 621
895 1 596 597
896 1 597 598
897 1 598 599
898 1 599 600
899 1 599 622
900 1 600 601
901 1 601 624
902 1 601 602
903 1 602 603
904 1 603 604
905 1 603 626
906 1 604 629
907 1 604 605
908 1 605 606
909 1 606 607
910 1 607 608
911 1 607 630
912 1 608 633
913 1 608 609
914 1 609 610
915 1 610 611
916 1 611 612
917 1 611 634
918 1 612 637
919 1 612 613
920 1 613 614
921 1 614 615
922 1 615 616
923 1 615 638
924 1 616 617
925 1 616 641
926 1 617 618
927 1 618 619
928 1 619 620
929 1 619 642
930 1 620 621
931 1 620 645
932 1 621 622
933 1 622 623
934 1 623 624
935 1 623 646
936 1 624 625
937 1 625 648
938 1 625 626
939 1 626 627
940 1 627 628
941 1 627 650
942 1 628 653
943 1 628 629
944 1 629 630
945 1 630 631
946 1 631 632
947 1 631 654
948 1 632 657
949 1 632 633
950 1 633 634
951 1 634 635
952 1 635 636
953 1 635 658
954 1 636 661
955 1 636 637
956 1 637 638
957 1 638 639
958 1 639 640
959 1 639 662
960 1 640 641
961 1 640 665
962 1 641 642
963 1 642 643
964 1 643 644
965 1 643 666
966 1 644 645
967 1 644 669
968 1 645 646
969 1 646 647
970 1 647 648
971 1 647 670
972 1 648 649
973 1 649 650
974 1 649 672
975 1 650 651
976 1 651 674
977 1 651 652
978 1 652 653
979 1 652 677
980 1 653 654
981 1 654 655
982 1 655 656
983 1 655 678
984 1 656 657
985 1 656 681
986 1 657 658
987 1 658 659
988 1 659 660
989 1 659 682
990 1 660 661
991 1 660 685
992 1 661 662
993 1 662 663
994 1 663 664
995 1 663 686
996 1 664 689
997 1 664 665
998 1 665 666
999 1 666 667
1000 1 667 690
1001 1 667 668
1002 1 668 669
1003 1 668 693
1004 1 669 670
1005 1 670 671
1006 1 671 694
1007 1 671 672
1008 1 672 673
1009 1 673 674
1010 1 673 696
1011 1 674 675
1012 1 675 698
1013 1 675 676
1014 1 676 701
1015 1 676 677
1016 1 677 678
1017 1 678 679
1018 1 679 680
1019 1 679 702
1020 1 680 705
1021 1 680 681
1022 1 681 682
1023 1 682 683
1024 1 683 684
1025 1 683 706
1026 1 684 709
1027 1 684 685
1028 1 685 686
1029 1 686 687
1030 1 687 688
1031 1 687 710
1032 1 688 689
1033 1 688 713
1034 1 689 690
1035 1 690 691
1036 1 691 714
1037 1 691 692
1038 1 692 717
1039 1 692 693
1040 1 693 694
1041 1 694 695
1042 1 695 718
1043 1 695 696
1044 1 696 697
1045 1 697 698
1046 1 697 720
1047 1 698 699
1048 1 699 700
1049 1 699 722
1050 1 700 701
1051 1 700 725
1052 1 701 702
1053 1 702 703
1054 1 703 704
1055 1 703 726
1056 1 704 705
1057 1 704 729
1058 1 705 706
1059 1 706 707
1060 1 707 708
1061 1 707 730
1062 1 708 709
1063 1 708 733
1064 1 709 710
1065 1 710 711
1066 1 711 712
1067 1 711 734
1068 1 712 713
1069 1 712 737
1070 1 713 714
1071 1 714 715
1072 1 715 716
1073 1 715 738
1074 1 716 717
1075 1 716 741
1076 1 717 718
1077 1 718 719
1078 1 719 720
1079 1 719 742
1080 1 720 721
1081 1 721 744
1082 1 721 722
1083 1 722 723
1084 1 723 724
1085 1 723 746
1086 1 724 749
1087 1 724 725
1088 1 725 726
1089 1 726 727
1090 1 727 728
1091 1 727 750
1092 1 728 753
1093 1 728 729
1094 1 729 730
1095 1 730 731
1096 1 731 732
1097 1 731 754
1098 1 732 757
1099 1 732 733
1100 1 733 734
1101 1 734 735
1102 1 735 736
1103 1 735 758
1104 1 736 737
1105 1 736 761
1106 1 737 738
1107 1 738 739
1108 1 739 740
1109 1 739 762
1110 1 740 741
1111 1 740 765
1112 1 741 742
1113 1 742 743
1114 1 743 744
1115 1 743 766
1116 1 744 745
1117 1 745 768
1118 1 745 746
1119 1 746 747
1120 1 747 748
1121 1 747 770
1122 1 748 773
1123 1 748 749
1124 1 749 750
1125 1 750 751
1126 1 751 752
1127 1 751 774
1128 1 752 777
1129 1 752 753
1130 1 753 754
1131 1 754 755
1132 1 755 756
1133 1 755 778
1134 1 756 757
1135 1 756 781
1136 1 757 758
1137 1 758 759
1138 1 759 760
1139 1 759 782
1140 1 760 761
1141 1 760 785
1142 1 761 762
1143 1 762 763
1144 1 763 764
1145 1 763 786
1146 1 764 765
1147 1 764 789
1148 1 765 766
1149 1 766 767
1150 1 767 768
1151 1 767 790
1152 1 768 769
1153 1 769 770
1154 1 769 792
1155 1 770 771
1156 1 771 794
1157 1 771 772
1158 1 772 797
1159 1 772 773
1160 1 773 774
1161 1 774 775
1162 1 775 776
1163 1 775 798
1164 1 776 801
1165 1 776 777
1166 1 777 778
1167 1 778 779
1168 1 779 780
1169 1 779 802
1170 1 780 805
1171 1 780 781
1172 1 781 782
1173 1 782 783
1174 1 783 784
1175 1 783 806
1176 1 784 785
1177 1 784 809
1178 1 785 786
1179 1 786 787
1180 1 787 810
1181 1 787 788
1182 1 788 813
1183 1 788 789
1184 1 789 790
1185 1 790 791
1186 1 791 814
1187 1 791 792
1188 1 792 793
1189 1 793 794
1190 1 793 816
1191 1 794 795
1192 1 795 818
1193 1 795 796
1194 1 796 797
1195 1 796 821
1196 1 797 798
1197 1 798 799
1198 1 799 800
1199 1 799 822
1200 1 800 801
1201 1 800 825
1202 1 801 802
1203 1 802 803
1204 1 803 804
1205 1 803 826
1206 1 804 805
1207 1 804 829
1208 1 805 806
1209 1 806 807
1210 1 807 808
1211 1 807 830
1212 1 808 809
1213 1 808 833
1214 1 809 810
1215 1 810 811
1216 1 811 834
1217 1 811 812
1218 1 812 813
1219 1 812 837
1220 1 813 814
1221 1 814 815
1222 1 815 838
1223 1 815 816
1224 1 816 817
1225 1 817 818
1226 1 817 840
1227 1 818 819
1228 1 819 820
1229 1 819 842
1230 1 820 821
1231 1 820 845
1232 1 821 822
1233 1 822 823
1234 1 823 824
1235 1 823 846
1236 1 824 849
1237 1 824 825
1238 1 825 826
1239 1 826 827
1240 1 827 828
1241 1 827 850
1242 1 828 829
1243 1 828 853
1244 1 829 830
1245 1 830 831
1246 1 831 832
1247 1 831 854
1248 1 832 857
1249 1 832 833
1250 1 833 834
1251 1 834 835
1252 1 835 836
1253 1 835 858
1254 1 836 861
1255 1 836 837
1256 1 837 838
1257 1 838 839
1258 1 839 840
1259 1 839 862
1260 1 840 841
1261 1 841 864
1262 1 841 842
1263 1 842 843
1264 1 843 844
1265 1 843 866
1266 1 844 869
1267 1 844 845
1268 1 845 846
1269 1 846 847
1270 1 847 848
1271 1 847 870
1272 1 848 873
1273 1 848 849
1274 1 849 850
1275 1 850 851
1276 1 851 852
1277 1 851 874
1278 1 852 853
1279 1 852 877
1280 1 853 854
1281 1 854 855
1282 1 855 856
1283 1 855 878
1284 1 856 857
1285 1 856 881
1286 1 857 858
1287 1 858 859
1288 1 859 860
1289 1 859 882
1290 1 860 861
1291 1 860 885
1292 1 861 862
1293 1 862 863
1294 1 863 864
1295 1 863 886
1296 1 864 865
1297 1 865 888
1298 1 865 866
1299 1 866 867
1300 1 867 868
1301 1 867 890
1302 1 868 893
1303 1 868 869
1304 1 869 870
1305 1 870 871
1306 1 871 872
1307 1 871 894
1308 1 872 897
1309 1 872 873
1310 1 873 874
1311 1 874 875
1312 1 875 876
1313 1 875 898
1314 1 876 901
1315 1 876 877
1316 1 877 878
1317 1 878 879
1318 1 879 880
1319 1 879 902
1320 1 880 881
1321 1 880 905
1322 1 881 882
1323 1 882 883
1324 1 883 884
1325 1 883 906
1326 1 884 885
1327 1 884 909
1328 1 885 886
1329 1 886 887
1330 1 887 888
1331 1 887 910
1332 1 888 889
1333 1 889 890
1334 1 889 912
1335 1 890 891
1336 1 891 914
1337 1 891 892
1338 1 892 893
1339 1 892 917
1340 1 893 894
1341 1 894 895
1342 1 895 896
1343 1 895 918
1344 1 896 897
1345 1 896 921
1346 1 897 898
1347 1 898 899
1348 1 899 900
1349 1 899 922
1350 1 900 901
1351 1 900 925
1352 1 901 902
1353 1 902 903
1354 1 903 904
1355 1 903 926
1356 1 904 905
1357 1 904 929
1358 1 905 906
1359 1 906 907
1360 1 907 930
1361 1 907 908
1362 1 908 909
1363 1 908 933
1364 1 909 910
1365 1 910 911
1366 1 911 934
1367 1 911 912
1368 1 912 913
1369 1 913 914
1370 1 913 936
1371 1 914 915
1372 1 915 938
1373 1 915 916
1374 1 916 917
1375 1 916 941
1376 1 917 918
1377 1 918 919
1378 1 919 920
1379 1 919 942
1380 1 920 945
1381 1 920 921
1382 1 921 922
1383 1 922 923
1384 1 923 924
1385 1 923 946
1386 1 924 925
1387 1 924 949
1388 1 925 926
1389 1 926 927
1390 1 927 928
1391 1 927 950
1392 1 928 953
1393 1 928 929
1394 1 929 930
1395 1 930 931
1396 1 931 954
1397 1 931 932
1398 1 932 957
1399 1 932 933
1400 1 933 934
1401 1 934 935
1402 1 935 958
1403 1 935 936
1404 1 936 937
1405 1 937 938
1406 1 937 960
1407 1 938 939
1408 1 939 940
1409 1 939 962
1410 1 940 965
1411 1 940 941
1412 1 941 942
1413 1 942 943
1414 1 943 944
1415 1 943 966
1416 1 944 945
1417 1 944 969
1418 1 945 946
1419 1 946 947
1420 1 947 948
1421 1 947 970
1422 1 948 949
1423 1 948 973
1424 1 949 950
1425 1 950 951
1426 1 951 952
1427 1 951 974
1428 1 952 953
1429 1 952 977
1430 1 953 954
1431 1 954 955
1432 1 955 956
1433 1 955 978
1434 1 956 957
1435 1 956 981
1436 1 957 958
1437 1 958 959
1438 1 959 960
1439 1 959 982
1440 1 960 961
1441 1 961 984
1442 1 961 962
1443 1 962 963
1444 1 963 964
1445 1 963 986
1446 1 964 989
1447 1 964 965
1448 1 965 966
1449 1 966 967
1450 1 967 968
1451 1 967 990
1452 1 968 993
1453 1 968 969
1454 1 969 970
1455 1 970 971
1456 1 971 972
1457 1 971 994
1458 1 972 997
1459 1 972 973
1460 1 973 974
1461 1 974 975
1462 1 975 976
1463 1 975 998
1464 1 976 977
1465 1 976 1001
1466 1 977 978
1467 1 978 979
1468 1 979 980
1469 1 979 1002
1470 1 980 981
1471 1 980 1005
1472 1 981 982
1473 1 982 983
1474 1 983 984
1475 1 983 1006
1476 1 984 985
1477 1 985 1008
1478 1 985 986
1479 1 986 987
1480 1 987 988
1481 1 987 1010
1482 1 988 1013
1483 1 988 989
1484 1 989 990
1485 1 990 991
1486 1 991 992
1487 1 991 1014
1488 1 992 1017
1489 1 992 993
1490 1 993 994
1491 1 994 995
1492 1 995 996
1493 1 995 1018
1494 1 996 997
1495 1 996 1021
1496 1 997 998
1497 1 998 999
1498 1 999 1000
1499 1 999 1022
1500 1 1000 1001
1501 1 1000 1025
1502 1 1001 1002
1503 1 1002 1003
1504 1 1003 1004
1505 1 1003 1026
1506 1 1004 1005
1507 1 1004 1029
1508 1 1005 1006
1509 1 1006 1007
1510 1 1007 1008
1511 1 1007 1030
1512 1 1008 1009
1513 1 1009 1010
1514 1 1009 1032
1515 1 1010 1011
1516 1 1011 1034
1517 1 1011 1012
1518 1 1012 1013
1519 1 1012 1037
1520 1 1013 1014
1521 1 1014 1015
1522 1 1015 1016
1523 1 1015 1038
1524 1 1016 1041
1525 1 1016 1017
1526 1 1017 1018
1527 1 1018 1019
1528 1 1019 1020
1529 1 1019 1042
1530 1 1020 1021
1531 1 1020 1045
1532 1 1021 1022
1533 1 1022 1023
1534 1 1023 1024
1535 1 1023 1046
1536 1 1024 1049
1537 1 1024 1025
1538 1 1025 1026
1539 1 1026 1027
1540 1 1027 1050
1541 1 1027 1028
1542 1 1028 1053
1543 1 1028 1029
1544 1 1029 1030
1545 1 1030 1031
1546 1 1031 1054
1547 1 1031 1032
1548 1 1032 1033
1549 1 1033 1034
1550 1 1033 1056
1551 1 1034 1035
1552 1 1035 1058
1553 1 1035 1036
1554 1 1036 1061
1555 1 1036 1037
1556 1 1037 1038
1557 1 1038 1039
1558 1 1039 1040
1559 1 1039 1062
1560 1 1040 1041
1561 1 1040 1065
1562 1 1041 1042
1563 1 1042 1043
1564 1 1043 1044
1565 1 1043 1066
1566 1 1044 1069
1567 1 1044 1045
1568 1 1045 1046
1569 1 1046 1047
1570 1 1047 1048
1571 1 1047 1070
1572 1 1048 1049
1573 1 1048 1073
1574 1 1049 1050
1575 1 1050 1051
1576 1 1051 1074
1577 1 1051 1052
1578 1 1052 1053
1579 1 1052 1077
1580 1 1053 1054
1581 1 1054 1055
1582 1 1055 1078
1583 1 1055 1056
1584 1 1056 1057
1585 1 1057 1058
1586 1 1057 1080
1587 1 1058 1059
1588 1 1059 1060
1589 1 1059 1082
1590 1 1060 1061
1591 1 1060 1085
1592 1 1061 1062
1593 1 1062 1063
1594 1 1063 1064
1595 1 1063 1086
1596 1 1064 1065
1597 1 1064 1089
1598 1 1065 1066
1599 1 1066 1067
1600 1 1067 1068
1601 1 1067 1090
1602 1 1068 1069
1603 1 1068 1093
1604 1 1069 1070
1605 1 1070 1071
1606 1 1071 1072
1607 1 1071 1094
1608 1 1072 1097
1609 1 1072 1073
1610 1 1073 1074
1611 1 1074 1075
1612 1 1075 1076
1613 1 1075 1098
1614 1 1076 1077
1615 1 1076 1101
1616 1 1077 1078
1617 1 1078 1079
1618 1 1079 1080
1619 1 1079 1102
1620 1 1080 1081
1621 1 1081 1104
1622 1 1081 1082
1623 1 1082 1083
1624 1 1083 1084
1625 1 1083 1106
1626 1 1084 1109
1627 1 1084 1085
1628 1 1085 1086
1629 1 1086 1087
1630 1 1087 1088
1631 1 1087 1110
1632 1 1088 1113
1633 1 1088 1089
1634 1 1089 1090
1635 1 1090 1091
1636 1 1091 1092
1637 1 1091 1114
1638 1 1092 1093
1639 1 1092 1117
1640 1 1093 1094
1641 1 1094 1095
1642 1 1095 1096
1643 1 1095 1118
1644 1 1096 1097
1645 1 1096 1121
1646 1 1097 1098
1647 1 1098 1099
1648 1 1099 1100
1649 1 1099 1122
1650 1 1100 1101
1651 1 1100 1125
1652 1 1101 1102
1653 1 1102 1103
1654 1 1103 1104
1655 1 1103 1126
1656 1 1104 1105
1657 1 1105 1128
1658 1 1105 1106
1659 1 1106 1107
1660 1 1107 1108
1661 1 1107 1130
1662 1 1108 1133
1663 1 1108 1109
1664 1 1109 1110
1665 1 1110 1111
1666 1 1111 1112
1667 1 1111 1134
1668 1 1112 1137
1669 1 1112 1113
1670 1 1113 1114
1671 1 1114 1115
1672 1 1115 1116
1673 1 1115 1138
1674 1 1116 1141
1675 1 1116 1117
1676 1 1117 1118
1677 1 1118 1119
1678 1 1119 1120
1679 1 1119 1142
1680 1 1120 1121
1681 1 1120 1145
1682 1 1121 1122
1683 1 1122 1123
1684 1 1123 1124
1685 1 1123 1146
1686 1 1124 1125
1687 1 1124 1149
1688 1 1125 1126
1689 1 1126 1127
1690 1 1127 1128
1691 1 1127 1150
1692 1 1128 1129
1693 1 1129 1130
1694 1 1129 1152
1695 1 1130 1131
1696 1 1131 1154
1697 1 1131 1132
1698 1 1132 1157
1699 1 1132 1133
1700 1 1133 1134
1701 1 1134 1135
1702 1 1135 1136
1703 1 1135 1158
1704 1 1136 1137
1705 1 1136 1161
1706 1 1137 1138
1707 1 1138 1139
1708 1 1139 1140
1709 1 1139 1162
1710 1 1140 1165
1711 1 1140 1141
1712 1 1141 1142
1713 1 1142 1143
1714 1 1143 1144
1715 1 1143 1166
1716 1 1144 1145
1717 1 1144 1169
1718 1 1145 1146
1719 1 1146 1147
1720 1 1147 1170
1721 1 1147 1148
1722 1 1148 1149
1723 1 1148 1173
1724 1 1149 1150
1725 1 1150 1151
1726 1 1151 1174
1727 1 1151 1152
1728 1 1152 1153
1729 1 1153 1154
1730 1 1153 1176
1731 1 1154 1155
1732 1 1155 1178
1733 1 1155 1156
1734 1 1156 1157
1735 1 1156 1181
1736 1 1157 1158
1737 1 1158 1159
1738 1 1159 1160
1739 1 1159 1182
1740 1 1160 1161
1741 1 1160 1185
1742 1 1161 1162
1743 1 1162 1163
1744 1 1163 1164
1745 1 1163 1186
1746 1 1164 1165
1747 1 1164 1189
1748 1 1165 1166
1749 1 1166 1167
1750 1 1167 1168
1751 1 1167 1190
1752 1 1168 1193
1753 1 1168 1169
1754 1 1169 1170
1755 1 1170 1171
1756 1 1171 1194
1757 1 1171 1172
1758 1 1172 1173
1759 1 1172 1197
1760 1 1173 1174
1761 1 1174 1175
1762 1 1175 1198
1763 1 1175 1176
1764 1 1176 1177
1765 1 1177 1178
1766 1 1177 1200
1767 1 1178 1179
1768 1 1179 1180
1769 1 1179 1202
1770 1 1180 1205
1771 1 1180 1181
1772 1 1181 1182
1773 1 1182 1183
1774 1 1183 1184
1775 1 1183 1206
1776 1 1184 1209
1777 1 1184 1185
1778 1 1185 1186
1779 1 1186 1187
1780 1 1187 1188
1781 1 1187 1210
1782 1 1188 1189
1783 1 1188 1213
1784 1 1189 1190
1785 1 1190 1191
1786 1 1191 1192
1787 1 1191 1214
1788 1 1192 1193
1789 1 1192 1217
1790 1 1193 1194
1791 1 1194 1195
1792 1 1195 1196
1793 1 1195 1218
1794 1 1196 1221
1795 1 1196 1197
1796 1 1197 1198
1797 1 1198 1199
1798 1 1199 1200
1799 1 1199 1222
1800 1 1200 1201
1801 1 1201 1224
1802 1 1201 1202
1803 1 1202 1203
1804 1 1203 1204
1805 1 1204 1205
1806 1 1205 1206
1807 1 1206 1207
1808 1 1207 1208
1809 1 1208 1209
1810 1 1209 1210
1811 1 1210 1211
1812 1 1211 1212
1813 1 1212 1213
1814 1 1213 1214
1815 1 1214 1215
1816 1 1215 1216
1817 1 1216 1217
1818 1 1217 1218
1819 1 1218 1219
1820 1 1219 1220
1821 1 1220 1221
1822 1 1221 1222
1823 1 1222 1223
1824 1 1223 1224
1825 1 1 1224
1826 1 2 1203
1827 1 5 1204
1828 1 6 1207
1829 1 9 1208
1830 1 10 1211
1831 1 13 1212
1832 1 14 1215
1833 1 17 1216
1834 1 18 1219
1835 1 21 1220
1836 1 22 1223
1837 2 1225 1227
1838 2 1226 1227
1839 2 1228 1230
1840 2 1229 1230
1841 2 1231 1233
1842 2 1232 1233
1843 2 1234 1236
1844 2 1235 1236
1845 2 1237 1239
1846 2 1238 1239
1847 2 1240 1242
1848 2 1241 1242
1849 2 1243 1245
1850 2 1244 1245
1851 2 1246 1248
1852 2 1247 1248
1853 2 1249 1251
1854 2 1250 1251
1855 2 1252 1254
1856 2 1253 1254
1857 2 1255 1257
1858 2 1256 1257
1859 2 1258 1260
1860 2 1259 1260
1861 2 1261 1263
1862 2 1262 1263
1863 2 1264 1266
1864 2 1265 1266
1865 2 1267 1269
1866 2 1268 1269
1867 2 1270 1272
1868 2 1271 1272
1869 2 1273 1275
1870 2 1274 1275
1871 2 1276 1278
1872 2 1277 1278
1873 2 1279 1281
1874 2 1280 1281
1875 2 1282 1284
1876 2 1283 1284
1877 2 1285 1287
1878 2 1286 1287
1879 2 1288 1290
1880 2 1289 1290
1881 2 1291 1293
1882 2 1292 1293
1883 2 1294 1296
1884 2 1295 1296
1885 2 1297 1299
1886 2 1298 1299
1887 2 1300 1302
1888 2 1301 1302
1889 2 1303 1305
1890 2 1304 1305
1891 2 1306 1308
1892 2 1307 1308
1893 2 1309 1311
1894 2 1310 1311
1895 2 1312 1314
1896 2 1313 1314
1897 2 1315 1317
1898 2 1316 1317
1899 2 1318 1320
1900 2 1319 1320
1901 2 1321 1323
1902 2 1322 1323
1903 2 1324 1326
1904 2 1325 1326
1905 2 1327 1329
1906 2 1328 1329
1907 2 1330 1332
1908 2 1331 1332
1909 2 1333 1335
1910 2 1334 1335
1911 2 1336 1338
1912 2 1337 1338
1913 2 1339 1341
1914 2 1340 1341
1915 2 1342 1344
1916 2 1343 1344
1917 2 1345 1347
1918 2 1346 1347
1919 2 1348 1350
1920 2 1349 1350
1921 2 1351 1353
1922 2 1352 1353
1923 2 1354 1356
1924 2 1355 1356
1925 2 1357 1359
1926 2 1358 1359
1927 2 1360 1362
1928 2 1361 1362
1929 2 1363 1365
1930 2 1364 1365
1931 2 1366 1368
1932 2 1367 1368

 Angles

1 1 1225 1227 1226
2 1 1228 1230 1229
3 1 1231 1233 1232
4 1 1234 1236 1235
5 1 1237 1239 1238
6 1 1240 1242 1241
7 1 1243 1245 1244
8 1 1246 1248 1247
9 1 1249 1251 1250
10 1 1252 1254 1253
11 1 1255 1257 1256
12 1 1258 1260 1259
13 1 1261 1263 1262
14 1 1264 1266 1265
15 1 1267 1269 1268
16 1 1270 1272 1271
17 1 1273 1275 1274
18 1 1276 1278 1277
19 1 1279 1281 1280
20 1 1282 1284 1283
21 1 1285 1287 1286
22 1 1288 1290 1289
23 1 1291 1293 1292
24 1 1294 1296 1295
25 1 1297 1299 1298
26 1 1300 1302 1301
27 1 1303 1305 1304
28 1 1306 1308 1307
29 1 1309 1311 1310
30 1 1312 1314 1313
31 1 1315 1317 1316
32 1 1318 1320 1319
33 1 1321 1323 1322
34 1 1324 1326 1325
35 1 1327 1329 1328
36 1 1330 1332 1331
37 1 1333 1335 1334
38 1 1336 1338 1337
39 1 1339 1341 1340
40 1 1342 1344 1343
41 1 1345 1347 1346
42 1 1348 1350 1349
43 1 1351 1353 1352
44 1 1354 1356 1355
45 1 1357 1359 1358
46 1 1360 1362 1361
47 1 1363 1365 1364
48 1 1366 1368 1367
