13
	Energy:     -77.9823483
O         -0.92174        0.34848       -0.58032
H          0.07105        0.47411       -0.46380
H         -1.19671       -0.35270        0.08979
H         -1.33066        1.21980       -0.28260
O          1.54376        0.74089       -0.24993
H          2.28299        0.21281       -0.62846
H          2.06506        1.47601        0.14137
O         -1.78418        2.60995        0.12399
H         -1.50960        3.47143       -0.26095
H         -2.53850        2.92173        0.67348
O         -1.60443       -1.45685        1.04786
H         -1.16660       -1.94430        1.77998
H         -2.42384       -1.99697        0.97325
