LAMMPS data file from restart file: timestep = 1000000, procs = 16

770 atoms
513 bonds
258 angles

5 atom types
2 bond types
2 angle types

-9.8650000000000002e+00 9.8650000000000002e+00 xlo xhi
-9.8650000000000002e+00 9.8650000000000002e+00 ylo yhi
-9.8650000000000002e+00 9.8650000000000002e+00 zlo zhi

Masses

1 16
2 1
3 16
4 1
5 35.45

Pair Coeffs

1        0.1554253     3.1654919998     # OW
2                0                0     # HW
3      0.098609686    3.11850800058     # OTH
4       4.0458e-05                0     # HTH
5             0.15    4.04468018036     # CLA

Angle Coeffs

1 37.95 113.24
2 38.7434 111.727

Atoms

498 232 2 4.0999999999999998e-01 -5.3635831267367218e+00 -6.9470874927237229e+00 -6.1542227229210971e+00 -1 3 -1
755 232 2 4.0999999999999998e-01 -5.5833760936661196e+00 -6.4141342390071099e+00 -7.6785201355927670e+00 2 -2 -5
310 104 1 -8.1999999999999995e-01 -8.4114753667786353e+00 -6.2046472372401809e+00 -7.2378938248477267e+00 0 3 -2
345 104 2 4.0999999999999998e-01 -7.8545380654844470e+00 -5.4266332044927816e+00 -6.9174112038429021e+00 -2 -4 3
124 42 1 -8.1999999999999995e-01 -5.9196940536652045e+00 -8.3354838775724325e+00 -5.4486447798230415e+00 -3 -5 10
38 104 2 4.0999999999999998e-01 -8.3548936926938087e+00 -6.9208317381779443e+00 -6.5129659567702030e+00 -5 3 4
725 192 2 4.0999999999999998e-01 -9.1787064942625012e+00 -9.0274830241923603e+00 -6.3008836040520961e+00 5 3 2
574 192 1 -8.1999999999999995e-01 -8.6859440226453657e+00 -8.4846844834344104e+00 -5.6154884175992077e+00 12 -5 -5
694 232 1 -8.1999999999999995e-01 -5.2053554560761901e+00 -6.1096706941578338e+00 -6.7510001434467286e+00 -5 4 5
687 134 2 4.0999999999999998e-01 -6.1844445488282407e+00 -7.1730485152599073e+00 -9.7512747605242041e+00 -4 -3 6
194 240 2 4.0999999999999998e-01 -5.0679665860086027e+00 -5.0091445986343643e+00 -9.1253906920179393e+00 8 2 2
718 240 1 -8.1999999999999995e-01 -5.8596869745392608e+00 -5.6075592454387637e+00 -9.3362461253690654e+00 7 2 -1
731 241 2 4.0999999999999998e-01 -8.8026527458218649e+00 -5.4519027122193711e+00 -8.7074673083701430e+00 5 1 -3
387 42 2 4.0999999999999998e-01 -6.9791867255994475e+00 -8.2231479050759546e+00 -5.4178041628319829e+00 -3 -3 -3
251 42 2 4.0999999999999998e-01 -5.5677522924191738e+00 -9.3189092921757890e+00 -5.5765958713312873e+00 -4 -7 -7
425 134 2 4.0999999999999998e-01 -5.6257926071081865e+00 -8.7075625916399915e+00 -9.5056133538283820e+00 -9 1 0
116 2 2 4.0999999999999998e-01 -6.1035419895206444e-01 -8.8977285105408299e+00 -9.3267602720437033e+00 1 1 -6
260 52 2 4.0999999999999998e-01 -3.0193694466981236e+00 -8.9620955431547618e+00 -5.9627264872548373e+00 9 1 3
174 73 2 4.0999999999999998e-01 -3.5844290018130738e+00 -7.0126672039645293e+00 -6.6926565259805404e+00 3 2 3
217 73 1 -8.1999999999999995e-01 -2.6540015188267412e+00 -7.3879016703099412e+00 -6.4994969376161134e+00 3 16 -3
144 73 2 4.0999999999999998e-01 -2.0048781979897665e+00 -6.8858109771439011e+00 -7.1617166814706819e+00 1 13 -9
530 230 2 4.0999999999999998e-01 -3.8474242325706332e+00 -9.1236359815732158e+00 -8.9911765499483352e+00 6 4 -4
253 85 1 -8.1999999999999995e-01 -1.8860194378854716e+00 -5.8714401129497302e+00 -8.4552041626733772e+00 5 2 10
548 85 2 4.0999999999999998e-01 -2.4674769852182825e+00 -5.0793907234219473e+00 -8.6856430691411273e+00 2 1 -5
218 85 2 4.0999999999999998e-01 -8.5362521835840721e-01 -5.6711697596625603e+00 -8.5747039551664717e+00 5 7 6
732 68 2 4.0999999999999998e-01 -2.1569959790644466e+00 -7.2690697250116614e+00 -9.3414996253790807e+00 4 -4 3
688 230 1 -8.1999999999999995e-01 -4.5150649110314642e+00 -8.9788821355584467e+00 -8.2246512604779234e+00 4 3 0
402 230 2 4.0999999999999998e-01 -4.4583408292673470e+00 -9.7514624224433728e+00 -7.5683806792664132e+00 5 -6 -2
459 176 2 4.0999999999999998e-01 -1.8728295558810593e+00 -6.4126245668936219e+00 -4.9538862485861666e+00 4 2 -4
426 119 2 4.0999999999999998e-01 -8.3142742347461098e+00 -3.0566794022613031e-01 -9.1606501293513425e+00 -5 3 10
660 99 2 4.0999999999999998e-01 -6.9401103444103640e+00 -3.3297690925558148e+00 -6.0170586375501696e+00 -8 -3 0
661 221 1 -8.1999999999999995e-01 -9.6281023655552112e+00 -4.7687177338705661e-01 -7.0348382434625236e+00 1 1 1
506 64 2 4.0999999999999998e-01 -4.9642729489070927e+00 -1.1760562017187117e+00 -7.0977282567603366e+00 -6 0 4
295 99 1 -8.1999999999999995e-01 -7.7427700752176625e+00 -3.8193445888263051e+00 -5.6097795338515972e+00 -1 12 -6
597 81 2 4.0999999999999998e-01 -8.4283131878957853e+00 -1.8757658374744135e+00 -7.5986890487992840e+00 -5 2 6
721 241 1 -8.1999999999999995e-01 -9.1361516116036139e+00 -4.8947531737138510e+00 -9.4736098155218578e+00 2 -5 -1
190 64 1 -8.1999999999999995e-01 -5.5330162482220686e+00 -2.0383254671236806e+00 -6.9775391750490634e+00 8 -3 -1
241 81 1 -8.1999999999999995e-01 -7.7263632402116773e+00 -2.1403102553412778e+00 -8.3051311339928091e+00 1 -2 10
488 81 2 4.0999999999999998e-01 -6.8004059544884248e+00 -2.0762834713522742e+00 -7.8153554896692166e+00 12 -10 6
245 162 2 4.0999999999999998e-01 -9.2268701577317671e+00 -3.1232421524653837e+00 -5.3641122903203113e+00 10 -5 -2
54 240 2 4.0999999999999998e-01 -6.3496990610270201e+00 -4.8688625743323932e+00 -9.8429892855518801e+00 0 -2 -7
300 47 2 4.0999999999999998e-01 -1.0767382812499069e+00 -1.2395163583343320e+00 -9.5235652983475809e+00 -3 -6 2
576 222 2 4.0999999999999998e-01 -3.0206214746774407e+00 -4.6258182117161413e+00 -5.2064886914598043e+00 2 -8 -4
100 34 1 -8.1999999999999995e-01 -3.6005000535654128e+00 -3.9898559052184845e+00 -9.6389341319151605e+00 -7 5 -2
450 64 2 4.0999999999999998e-01 -4.9011333982702938e+00 -2.6741607654547863e+00 -6.5087886910056323e+00 8 -2 1
517 173 1 -8.1999999999999995e-01 -2.9201339408119624e+00 -1.4087256584127770e+00 -9.5593908304761488e+00 4 -2 -1
638 173 2 4.0999999999999998e-01 -3.0363516727011186e+00 -1.0158296642168079e+00 -8.5821395393773301e+00 5 4 -4
587 222 2 4.0999999999999998e-01 -4.4482521497891883e+00 -4.7070877656132231e+00 -6.1438617769859487e+00 3 5 -1
616 206 1 -8.1999999999999995e-01 -1.3950201358138041e+00 -1.8206976478610015e+00 -6.0216538171850198e+00 5 -5 1
664 222 1 -8.1999999999999995e-01 -3.7298774459721122e+00 -4.0304269892165294e+00 -5.6951513533584439e+00 -4 -2 3
272 34 2 4.0999999999999998e-01 -3.4219159676356270e+00 -2.9515393869463944e+00 -9.6167939371296782e+00 -4 6 0
672 206 2 4.0999999999999998e-01 -2.2214838614349888e+00 -2.4217167044617387e+00 -5.8432570567294437e+00 0 -2 1
125 206 2 4.0999999999999998e-01 -9.9818556998699703e-01 -1.4121951018105277e+00 -5.1878598132209941e+00 4 8 5
139 47 1 -8.1999999999999995e-01 -8.8197849186725560e-02 -1.1425096522872895e+00 -9.6715223120945950e+00 12 7 4
545 225 2 4.0999999999999998e-01 -9.6299443301187253e+00 -5.3776621227965151e+00 -4.4972395876140752e+00 -3 -1 -6
193 65 1 -8.1999999999999995e-01 -9.5440396224107893e+00 -9.7117173808056148e+00 -3.4137340475129530e+00 3 1 -1
512 195 2 4.0999999999999998e-01 -6.8515805916584096e+00 -5.7849446210242803e+00 -2.8708735267098162e+00 2 2 5
275 9 2 4.0999999999999998e-01 -6.2729250687850788e+00 -7.3428138697489000e+00 -9.5794317266765938e-01 -6 4 -7
25 9 1 -8.1999999999999995e-01 -6.8050157454567541e+00 -6.9900151267050559e+00 -1.8154769658811936e+00 -4 7 0
663 9 2 4.0999999999999998e-01 -7.7151971542530653e+00 -7.3817933247782337e+00 -1.6507133860680343e+00 -3 1 8
360 120 2 4.0999999999999998e-01 -5.3167972136859483e+00 -8.4889118656278502e+00 -3.6975340622510977e+00 0 4 1
684 120 2 4.0999999999999998e-01 -5.2069652001872742e+00 -8.5811422034161673e+00 -2.0890947708951098e+00 -7 0 7
317 192 2 4.0999999999999998e-01 -9.0153619084041345e+00 -8.9340612147198382e+00 -4.7324226492649686e+00 2 12 -5
724 242 1 -8.1999999999999995e-01 -5.2105041671820329e+00 -8.2598696537100569e+00 -1.4814919845648660e-02 0 0 -1
189 194 2 4.0999999999999998e-01 -7.8954543362676919e+00 -9.7631517862509796e+00 -1.7043476970056901e-01 1 4 1
678 65 2 4.0999999999999998e-01 -9.8055301544135478e+00 -9.0099512970728739e+00 -2.7490304732075264e+00 -3 6 8
720 22 2 4.0999999999999998e-01 -9.8316614577989618e+00 -6.3743611867450714e+00 -1.2217756974035094e+00 15 5 -3
128 176 2 4.0999999999999998e-01 -1.2899617199041578e+00 -5.6866845348918691e+00 -3.5486027071406272e+00 8 5 -2
448 150 1 -8.1999999999999995e-01 -5.6105956162440718e-01 -6.8465762874478662e+00 -1.8943461997988902e+00 -4 2 4
161 155 2 4.0999999999999998e-01 -1.3055889097604820e+00 -8.8637745503225442e+00 -2.2324468794677244e+00 9 -2 0
371 155 2 4.0999999999999998e-01 -3.0415099711942295e+00 -8.8270245690303391e+00 -2.2982592780757920e+00 7 -8 1
463 155 1 -8.1999999999999995e-01 -2.1952241189397603e+00 -9.2935839250247021e+00 -1.9846227929439872e+00 -2 2 0
358 120 1 -8.1999999999999995e-01 -4.6353410429317510e+00 -8.5258217836461654e+00 -2.9458086593240167e+00 0 4 1
395 255 2 4.0999999999999998e-01 -4.2122508634908167e+00 -6.6602831605992101e+00 -2.6588899782794786e+00 -3 -1 -9
763 255 1 -8.1999999999999995e-01 -3.9872710805234353e+00 -5.6323104972588585e+00 -2.4437114638478605e+00 -3 -2 0
468 255 2 4.0999999999999998e-01 -3.3682840704619585e+00 -5.2528887801733504e+00 -3.1870157654811102e+00 -5 0 -5
526 176 1 -8.1999999999999995e-01 -1.9686540849870111e+00 -5.5812764653506921e+00 -4.2875929147312037e+00 12 4 -11
447 150 2 4.0999999999999998e-01 -4.2860399759489404e-01 -6.5835120426685805e+00 -8.9016486656908400e-01 -3 0 -1
615 135 2 4.0999999999999998e-01 -2.2234088473216085e+00 -9.7595118093650601e+00 -3.6221995213423386e-01 4 -4 3
583 195 1 -8.1999999999999995e-01 -6.7890504881602389e+00 -4.8223589113682443e+00 -3.2969931262208720e+00 -1 -2 -5
77 195 2 4.0999999999999998e-01 -5.8900338762289355e+00 -4.4021991767216040e+00 -3.1284844853916547e+00 3 6 -4
685 229 1 -8.1999999999999995e-01 -5.9003103216750379e+00 -1.7905957436562445e-01 -2.4056842107864957e+00 5 7 4
404 83 2 4.0999999999999998e-01 -7.4025012752482997e+00 -3.2209048409813850e+00 -5.5896266554371266e-01 5 8 -3
654 99 2 4.0999999999999998e-01 -7.4994747876867223e+00 -4.2879596773065911e+00 -4.7004168513688525e+00 -6 -3 5
50 229 2 4.0999999999999998e-01 -5.8397079242444683e+00 -6.5858245966434303e-01 -1.4595428662431216e+00 -5 7 8
516 179 2 4.0999999999999998e-01 -7.8033226816352972e+00 -3.5095962264018885e+00 -2.6519114824002514e+00 -3 5 -2
357 143 2 4.0999999999999998e-01 -9.7311221437839350e+00 -3.5559471464816022e+00 -6.3274595246968346e-01 -7 -10 8
535 179 1 -8.1999999999999995e-01 -8.0629685880627413e+00 -2.7042705173322941e+00 -2.0253597476139111e+00 -8 -7 3
185 179 2 4.0999999999999998e-01 -8.1351615079267443e+00 -1.7740108062293121e+00 -2.4425072523708562e+00 4 5 -2
166 56 1 -8.1999999999999995e-01 -5.1107343466725412e+00 -1.0394805944269891e+00 -1.2198692515784239e-02 4 5 -8
418 140 1 -8.1999999999999995e-01 -4.3913273212011461e+00 -4.2426365618879052e+00 -3.0355178882824241e-01 0 -6 3
140 82 2 4.0999999999999998e-01 -1.2194718644995770e-01 -3.7283332042935844e+00 -1.3735792164993295e+00 7 -5 2
765 140 2 4.0999999999999998e-01 -4.3585358321051615e+00 -4.7638675592119970e+00 -1.2136894503715594e+00 0 10 -4
536 140 2 4.0999999999999998e-01 -3.4685729347365428e+00 -3.7228254919006281e+00 -1.9439608560121074e-01 4 -1 -2
689 76 2 4.0999999999999998e-01 -6.3235438926152321e-01 -1.3048492537513225e+00 -2.9600378341854627e+00 -4 4 2
556 186 1 -8.1999999999999995e-01 -1.4161612276998399e+00 -1.1919330028227713e+00 -1.5208241441326200e+00 -10 1 10
159 186 2 4.0999999999999998e-01 -1.3756529230467005e+00 -1.9756709321271761e+00 -9.2326432996316887e-01 0 -1 -5
226 76 1 -8.1999999999999995e-01 -4.1041410597887032e-02 -1.3713969295819293e+00 -3.7906713018373610e+00 -8 -2 -4
500 186 2 4.0999999999999998e-01 -1.2186717489698182e+00 -4.0223092138196670e-01 -8.9656489466478873e-01 5 4 4
74 226 2 4.0999999999999998e-01 -2.6165189179400956e+00 -1.2584517630902983e-01 -2.0490215024352625e+00 -5 -2 5
475 159 1 -8.1999999999999995e-01 -6.5838268941683538e+00 -6.8266412622078141e+00 2.4903805858875172e+00 2 1 -6
243 159 2 4.0999999999999998e-01 -6.7334078505291597e+00 -7.3687922417562781e+00 3.3319916616228245e+00 5 2 5
650 159 2 4.0999999999999998e-01 -5.5418517982081044e+00 -6.5566458269827042e+00 2.2733320345463386e+00 3 3 -1
703 235 1 -8.1999999999999995e-01 -8.6700983378379846e+00 -5.2308821932521985e+00 1.6469014994014328e+00 -9 7 -3
653 199 2 4.0999999999999998e-01 -7.7194711996719168e+00 -7.8048095293292032e+00 1.1471908506420121e+00 -3 -9 0
595 199 1 -8.1999999999999995e-01 -8.2758100012657643e+00 -8.3832926360750228e+00 5.0586232871662096e-01 -2 0 2
389 235 2 4.0999999999999998e-01 -7.9411789538518454e+00 -5.8678789830439717e+00 1.9882204437441817e+00 -3 -3 5
393 242 2 4.0999999999999998e-01 -5.1692234844806348e+00 -9.2713432517647298e+00 6.9453917406894300e-02 2 0 -2
287 45 2 4.0999999999999998e-01 -8.3979607525959175e+00 -5.2067894708718114e+00 4.8782129656625139e+00 13 3 -10
96 199 2 4.0999999999999998e-01 -8.9969627986713974e+00 -8.7597700155999991e+00 1.1285745826280522e+00 4 -3 1
28 10 1 -8.1999999999999995e-01 -6.8043189745068426e+00 -7.8976245393142737e+00 4.9074682545482204e+00 6 5 4
492 242 2 4.0999999999999998e-01 -4.4848137910347532e+00 -7.8022967356251325e+00 5.2344785815378980e-01 -3 -3 -2
550 184 1 -8.1999999999999995e-01 -4.0336350268880761e+00 -5.9581821615775379e+00 1.6349750330425192e+00 -4 -3 -3
29 184 2 4.0999999999999998e-01 -4.1318464271926425e+00 -5.4509329095992740e+00 2.5277526256677563e+00 -1 7 3
551 184 2 4.0999999999999998e-01 -4.1711584718063426e+00 -5.2880872519669850e+00 8.4227779817096748e-01 -4 -3 -3
728 90 2 4.0999999999999998e-01 -2.4790941847386567e+00 -7.9871197696962168e+00 4.8960507915668874e+00 4 -1 -7
670 224 1 -8.1999999999999995e-01 -2.6319796624324349e-01 -6.3344384069023754e+00 6.8444144468016410e-01 4 -2 0
210 224 2 4.0999999999999998e-01 -1.0888672970563233e+00 -6.8961776101301462e+00 1.0321503479391803e+00 -1 2 -6
24 79 2 4.0999999999999998e-01 -2.2994856352786641e+00 -8.1988102553805184e+00 2.8674251402433981e+00 1 -3 1
652 218 1 -8.1999999999999995e-01 -5.5340709971787272e-01 -5.2268296435178021e+00 4.8346592464451517e+00 -7 0 3
424 142 1 -8.1999999999999995e-01 -1.0289773937398659e+00 -9.1156980987057903e+00 4.6641735905058601e+00 4 5 7
381 13 2 4.0999999999999998e-01 -3.3009010854238241e+00 -5.4296767856575103e+00 4.2796588560892612e+00 -2 2 -6
398 79 2 4.0999999999999998e-01 -2.8769649606175398e+00 -6.9153866956031225e+00 1.9822443663031217e+00 0 8 -8
182 142 2 4.0999999999999998e-01 -1.7567757915587040e-01 -8.8396314268900280e+00 4.1176273269001209e+00 6 3 10
235 79 1 -8.1999999999999995e-01 -2.1532064362719483e+00 -7.7050567076013250e+00 2.0016646198826908e+00 8 4 4
264 135 2 4.0999999999999998e-01 -1.8306668928041103e+00 -9.2916793243020397e+00 1.2131023558914651e+00 -1 -4 -5
165 218 2 4.0999999999999998e-01 -1.1740137654240987e+00 -6.0548350133275797e+00 4.8426187060280173e+00 2 11 0
149 224 2 4.0999999999999998e-01 -5.7871659287855801e-03 -5.6096660915014418e+00 1.4240033979292948e+00 10 -1 -9
284 13 2 4.0999999999999998e-01 -4.8097108136045490e+00 -5.0491219157014333e+00 4.8542593465007924e+00 -1 0 7
12 19 2 4.0999999999999998e-01 -7.2155345297643327e+00 -2.6358699297628037e+00 3.3599981658687539e+00 3 -3 4
333 235 2 4.0999999999999998e-01 -8.1445673766959406e+00 -4.5645905331834182e+00 1.0366729404845771e+00 2 3 -2
247 83 1 -8.1999999999999995e-01 -6.9796470239626007e+00 -3.5960471402578471e+00 3.2175334344838130e-01 0 -4 -1
433 145 1 -8.1999999999999995e-01 -8.4309035392707123e+00 -4.3392565802156136e-01 1.7821039749737899e+00 5 3 -1
366 145 2 4.0999999999999998e-01 -7.5022609461009777e+00 -7.9398863609523229e-01 1.9251503609501821e+00 0 1 6
378 216 2 4.0999999999999998e-01 -5.2448120471439932e+00 -1.5223135420923075e+00 3.5777152334911433e+00 -2 -3 -1
444 19 2 4.0999999999999998e-01 -7.9924202565891678e+00 -3.9762962098343495e+00 3.0669837237934554e+00 -3 0 0
273 216 2 4.0999999999999998e-01 -5.9945100573117278e+00 -2.0780667965301280e-01 3.7441872499363114e+00 -8 1 7
646 216 1 -8.1999999999999995e-01 -5.9770366604172542e+00 -9.8852987380339885e-01 3.1353484151824040e+00 -3 4 0
55 19 1 -8.1999999999999995e-01 -7.9152677417693971e+00 -3.2852548804127331e+00 3.7945302825665239e+00 -3 0 -8
561 56 2 4.0999999999999998e-01 -5.7798433916048344e+00 -1.6555002698296775e+00 3.8181409713300435e-01 10 7 -6
680 202 2 4.0999999999999998e-01 -8.8428509371565998e+00 -2.4176923520893339e+00 4.4770199960681820e+00 -5 -5 0
489 83 2 4.0999999999999998e-01 -6.1801943306909308e+00 -4.2071156405291639e+00 1.2474286653846409e-01 -2 2 4
37 13 1 -8.1999999999999995e-01 -4.1552121217815072e+00 -4.9039947318688037e+00 4.0676654364347904e+00 1 1 -4
753 56 2 4.0999999999999998e-01 -4.2924772661435071e+00 -9.8670024555204683e-01 5.7449028911065503e-01 2 -1 -5
186 158 2 4.0999999999999998e-01 -1.0333979231664331e-01 -4.5657117883270777e+00 3.4495871575037329e+00 1 14 -1
627 208 2 4.0999999999999998e-01 -2.5431248643051343e+00 -2.9082108944850704e-01 2.2146063989263514e+00 -1 3 -5
170 161 2 4.0999999999999998e-01 -3.9366032443881842e+00 -3.4660425330969704e+00 4.2314575991826286e+00 8 -7 3
481 161 1 -8.1999999999999995e-01 -3.7089090312872361e+00 -2.3933682546471284e+00 4.1578232888281050e+00 7 -8 2
613 205 1 -8.1999999999999995e-01 -1.5242638138715920e+00 -3.0098074033800675e+00 4.6606969522420383e-01 3 2 -6
464 205 2 4.0999999999999998e-01 -1.9625599574610886e+00 -2.1659910698653797e+00 9.5130404985729700e-01 5 5 0
411 208 2 4.0999999999999998e-01 -3.4424455019044835e+00 -1.5828481521396560e+00 2.5666316020630129e+00 3 7 -6
622 208 1 -8.1999999999999995e-01 -3.1003364003721590e+00 -1.0544516954860812e+00 1.7591258383585486e+00 2 6 -9
258 205 2 4.0999999999999998e-01 -9.3214798513057273e-01 -3.4698136948828782e+00 1.1323950397757971e+00 -3 9 1
59 217 2 4.0999999999999998e-01 -1.4807931381367078e-02 -1.1550453092601947e+00 3.5203695161531989e+00 1 -1 -4
455 10 2 4.0999999999999998e-01 -7.1620244332886989e+00 -7.1689681449436957e+00 5.5663802849588953e+00 -1 -1 5
84 189 2 4.0999999999999998e-01 -6.7175804661361918e+00 -5.2957269944093639e+00 6.1891358551002895e+00 2 2 3
135 45 2 4.0999999999999998e-01 -9.0951226364054296e+00 -5.7043813940518957e+00 6.2984966505036208e+00 -1 1 0
133 45 1 -8.1999999999999995e-01 -8.2025447041842909e+00 -5.6985517505268053e+00 5.7993684698558914e+00 12 -3 -5
570 53 2 4.0999999999999998e-01 -9.7017652559740384e+00 -5.4148543716028295e+00 8.6765528303404622e+00 -1 -6 1
147 21 2 4.0999999999999998e-01 -5.4026342108303567e+00 -8.8771384590623281e+00 5.2584220204669165e+00 1 -8 1
565 189 1 -8.1999999999999995e-01 -5.7060837484281191e+00 -5.0492434417920578e+00 6.2658605550149176e+00 -19 -4 5
259 87 1 -8.1999999999999995e-01 -8.7164747220128973e+00 -9.8099298839426545e+00 5.4568543831848579e+00 3 -8 -4
698 10 2 4.0999999999999998e-01 -7.5234070734321250e+00 -8.6384701826162384e+00 5.0938981403749981e+00 1 2 4
271 91 1 -8.1999999999999995e-01 -9.3733899934124025e+00 -8.0272563196195463e+00 9.3113653098162654e+00 3 -4 -3
344 91 2 4.0999999999999998e-01 -9.7106830750142787e+00 -7.2179769252259556e+00 8.7875656416514527e+00 -2 0 -2
648 91 2 4.0999999999999998e-01 -8.5616572614424271e+00 -7.8418024373753257e+00 9.8062212402421682e+00 -1 -4 -2
68 66 2 4.0999999999999998e-01 -5.4743890531692161e+00 -7.4530547694090812e+00 8.3530202772601676e+00 6 1 7
290 66 2 4.0999999999999998e-01 -5.0215025616542466e+00 -6.4003294637943009e+00 7.0756031464592040e+00 4 -14 7
594 87 2 4.0999999999999998e-01 -9.5829313733976829e+00 -9.2823091514212912e+00 5.6425793227672596e+00 9 -3 5
400 134 1 -8.1999999999999995e-01 -6.2814706838319436e+00 -8.1127183910672969e+00 9.5929335452085542e+00 -6 -7 -3
527 146 2 4.0999999999999998e-01 -8.4623040488517276e+00 -9.8599972922253389e+00 8.6201027399542429e+00 14 2 -8
119 90 2 4.0999999999999998e-01 -2.9451465265612478e+00 -6.6817219924653397e+00 5.8927681899603188e+00 -8 -2 -3
228 21 2 4.0999999999999998e-01 -4.5898968406366878e+00 -8.9187254713642119e+00 6.6304804778314379e+00 -3 0 -3
61 21 1 -8.1999999999999995e-01 -4.6216340172485992e+00 -9.4042644877834949e+00 5.6924394987001765e+00 1 3 2
754 252 1 -8.1999999999999995e-01 -4.7900239537861372e-01 -9.0627770762386781e+00 7.3686894027482506e+00 -7 2 3
202 68 1 -8.1999999999999995e-01 -2.1027030417922612e+00 -7.9270728739697809e+00 9.5575158676228043e+00 -1 1 -3
196 66 1 -8.1999999999999995e-01 -4.8268486014629257e+00 -7.3082106151395134e+00 7.5359193197406604e+00 12 -2 -1
735 68 2 4.0999999999999998e-01 -2.6653516415692291e+00 -7.6772344318400467e+00 8.7551600918939414e+00 -1 -2 2
21 252 2 4.0999999999999998e-01 -1.1104462775127630e+00 -8.6690538853572843e+00 8.0566460569680700e+00 -7 -3 -3
285 142 2 4.0999999999999998e-01 -8.7948384482255604e-01 -9.5863990747134444e+00 5.5214389259313572e+00 -3 4 4
268 90 1 -8.1999999999999995e-01 -2.6472626097981347e+00 -6.9666853833326394e+00 4.9529168819220235e+00 0 0 -4
420 241 2 4.0999999999999998e-01 -8.3566784877794884e+00 -4.3667050131682590e+00 9.8338928556995864e+00 5 -5 6
564 188 2 4.0999999999999998e-01 -9.8617487846678085e+00 -1.9586300789301839e-01 7.7668612881085819e+00 -5 -6 -9
578 189 2 4.0999999999999998e-01 -5.5631252966161160e+00 -4.4239403187538793e+00 7.0271017305310650e+00 -11 0 5
524 256 2 4.0999999999999998e-01 -7.1788923430488429e+00 -2.9796413940238526e+00 8.1253073860580454e+00 1 0 -5
71 70 2 4.0999999999999998e-01 -7.0429116099533502e+00 -5.5719253798937374e-01 7.0517734305634656e+00 -1 -2 7
208 70 1 -8.1999999999999995e-01 -6.9181360199724553e+00 -1.5818354433308601e+00 6.9002864072345034e+00 3 -1 -2
386 70 2 4.0999999999999998e-01 -7.5541099519659340e+00 -1.8347665819972963e+00 6.1404413147906087e+00 -1 -1 2
639 84 2 4.0999999999999998e-01 -5.1373378147093547e+00 -2.3624821981774433e+00 7.2084616891978035e+00 4 -3 0
766 256 1 -8.1999999999999995e-01 -6.9301932824540566e+00 -3.4724191508526587e+00 9.0125173111016803e+00 5 -1 -3
604 202 1 -8.1999999999999995e-01 -9.4304422927783591e+00 -1.7849412038566659e+00 5.0834234131001317e+00 0 -8 -3
630 256 2 4.0999999999999998e-01 -7.2040611247016466e+00 -2.8563320875153297e+00 9.7982937063142490e+00 3 6 -2
549 212 2 4.0999999999999998e-01 -2.4821444990524717e+00 -2.8512374426343107e-01 6.7795053349324172e+00 -2 -5 -5
662 173 2 4.0999999999999998e-01 -2.7123424068601194e+00 -6.5493067716471576e-01 9.4903118469246763e+00 4 0 3
470 197 2 4.0999999999999998e-01 -1.6156450199242154e+00 -4.5449729842765150e+00 6.5905311457147784e+00 -5 -4 -8
713 197 2 4.0999999999999998e-01 -3.0681475826786606e+00 -4.0216693547345228e+00 7.0584767013842349e+00 -2 5 -7
589 197 1 -8.1999999999999995e-01 -2.4806647180172190e+00 -4.8817247812789546e+00 7.0631363673747796e+00 5 1 -6
634 212 1 -8.1999999999999995e-01 -2.4212910126961935e+00 -1.0380830052025065e+00 6.1372693642217468e+00 -1 -10 1
177 212 2 4.0999999999999998e-01 -1.4434743423580725e+00 -1.2566220285853384e+00 5.9969379004832062e+00 3 -3 1
250 84 1 -8.1999999999999995e-01 -4.2037092220504340e+00 -2.7627905171979834e+00 7.3037301660614560e+00 0 -5 0
666 34 2 4.0999999999999998e-01 -3.5085712112008722e+00 -4.2807452333564111e+00 9.1080468192397461e+00 -1 10 -1
291 84 2 4.0999999999999998e-01 -3.5129265945651751e+00 -2.0307172411990160e+00 7.0848632576770880e+00 4 10 -2
636 161 2 4.0999999999999998e-01 -3.3390673631383976e+00 -2.1404100931475925e+00 5.1197734191991460e+00 4 -4 3
759 223 2 4.0999999999999998e-01 -9.2233756757590122e+00 4.7673600639538440e+00 -7.3194607211933072e+00 8 4 -1
435 77 2 4.0999999999999998e-01 -8.5559627464487829e+00 3.6807524730880776e+00 -5.1237846503984246e+00 -2 -4 3
669 57 2 4.0999999999999998e-01 -5.1491534728512791e+00 3.0061941167477157e+00 -7.3754171616389055e+00 -9 -2 -3
667 223 1 -8.1999999999999995e-01 -8.5012188765350540e+00 4.5502709066492715e+00 -6.6318759043311548e+00 5 0 -7
539 223 2 4.0999999999999998e-01 -7.5854438442826604e+00 4.2572166550386443e+00 -6.9775339064205220e+00 4 7 -8
169 57 1 -8.1999999999999995e-01 -5.3145277947593135e+00 3.8897543180284799e+00 -6.9410445460590413e+00 0 -4 -2
392 119 2 4.0999999999999998e-01 -8.8323524222778964e+00 1.2512404102656971e+00 -8.9343967373789432e+00 2 5 3
396 228 2 4.0999999999999998e-01 -6.3722905538570469e+00 5.5219875646757655e-01 -5.3075407736937912e+00 2 -1 -2
682 228 1 -8.1999999999999995e-01 -5.7820999078596360e+00 1.3785120636470285e+00 -5.3396221176629366e+00 -6 -4 4
355 119 1 -8.1999999999999995e-01 -8.1478387607545049e+00 6.8783083121512867e-01 -9.4232444477505375e+00 -2 -2 -3
215 49 2 4.0999999999999998e-01 -5.3907040712325927e+00 2.6760010512603265e+00 -9.7070343157207368e+00 3 -2 -5
145 49 1 -8.1999999999999995e-01 -5.3052070820687041e+00 1.9333803171899275e+00 -9.0247073943635616e+00 -6 1 0
573 49 2 4.0999999999999998e-01 -6.0142195026168332e+00 1.2293548141620512e+00 -9.2179304650787390e+00 -5 4 -3
714 228 2 4.0999999999999998e-01 -6.3474118373933894e+00 2.1539669940607751e+00 -5.6493360202489065e+00 4 -6 0
78 107 2 4.0999999999999998e-01 -9.7098080093422325e+00 2.1000357330807784e+00 -5.0714333530566718e+00 4 6 3
380 60 2 4.0999999999999998e-01 -4.3548027946608361e+00 8.8454938811960515e-01 -7.8929458509443693e+00 2 1 5
85 29 1 -8.1999999999999995e-01 -2.4576791556136079e+00 4.6648574592443559e+00 -7.2731478349314829e+00 7 6 2
599 249 2 4.0999999999999998e-01 -2.7437029630523675e+00 4.5750382217660714e+00 -5.4836736303026461e+00 -6 1 -2
372 29 2 4.0999999999999998e-01 -1.4717887425051779e+00 4.6138656607893260e+00 -7.1528147568841831e+00 7 -3 3
206 67 2 4.0999999999999998e-01 -1.9982963866759107e+00 4.1962123985265792e-01 -5.8586700305240793e+00 5 1 5
309 57 2 4.0999999999999998e-01 -4.4228449672350898e+00 4.2510661436332589e+00 -6.5522527083268214e+00 2 3 2
178 60 1 -8.1999999999999995e-01 -3.9729250662749540e+00 1.2133106105938950e-01 -7.3155493270789540e+00 3 -5 -5
540 60 2 4.0999999999999998e-01 -4.3073323057254811e+00 5.3594159071496483e-01 -6.4308597196130366e+00 -8 -3 3
274 92 1 -8.1999999999999995e-01 -1.7292227172008123e-01 1.9735812740248553e+00 -9.1405947506588863e+00 -1 -3 -3
20 92 2 4.0999999999999998e-01 -1.9414409667612145e-01 1.0497222103620676e+00 -9.5140629748688337e+00 1 -7 3
199 67 1 -8.1999999999999995e-01 -1.7596729995113416e+00 1.0274976996154193e+00 -5.0720937981727729e+00 5 4 4
48 207 2 4.0999999999999998e-01 -4.8112739620762868e-01 3.9715935505163293e+00 -9.7443056652863458e+00 3 2 -2
188 249 2 4.0999999999999998e-01 -2.6594998326476147e+00 2.9485256043211585e+00 -5.0131502818386293e+00 2 -2 -4
350 210 2 4.0999999999999998e-01 -9.4071233298319068e-02 1.6228379105698933e+00 -5.4863805205214504e+00 9 -1 2
532 178 1 -8.1999999999999995e-01 -5.5897166136377985e+00 8.8678750848235417e+00 -5.7806405872489002e+00 -2 6 0
146 166 2 4.0999999999999998e-01 -6.8847500331630966e+00 6.9601538492168791e+00 -8.4650942119672710e+00 -7 -2 5
407 209 2 4.0999999999999998e-01 -8.7299890617115850e+00 5.9482574677454085e+00 -5.6481346824542733e+00 2 2 -2
531 178 2 4.0999999999999998e-01 -6.2648503428428723e+00 8.6584890047076826e+00 -6.5036741336301143e+00 5 -4 4
496 166 1 -8.1999999999999995e-01 -5.9862330468993354e+00 6.7969964209492613e+00 -8.7308688488512303e+00 -2 -4 5
429 183 2 4.0999999999999998e-01 -8.8591186735906575e+00 8.0631283235330482e+00 -7.9350171441471913e+00 -7 -7 5
547 183 1 -8.1999999999999995e-01 -8.2124249807916243e+00 8.3461150566105289e+00 -7.1819263871852037e+00 -2 -2 -5
752 183 2 4.0999999999999998e-01 -8.6076093438445653e+00 7.8932835821318212e+00 -6.3185043384827182e+00 0 -2 8
620 166 2 4.0999999999999998e-01 -5.8181226586155290e+00 5.8909531796884149e+00 -8.3619799547476887e+00 -8 2 -4
364 122 1 -8.1999999999999995e-01 -9.1939554055006543e+00 7.4462773315633948e+00 -9.7301149695612690e+00 2 -1 3
408 122 2 4.0999999999999998e-01 -9.0831362362450019e+00 6.3954576532849989e+00 -9.8023437160550824e+00 0 -3 -8
296 171 2 4.0999999999999998e-01 -1.7203888143972621e+00 8.7157764352865197e+00 -6.8503551186484835e+00 2 -3 -3
154 52 1 -8.1999999999999995e-01 -3.0272989180553060e+00 9.7396676061527447e+00 -5.8153299484621215e+00 1 -5 0
297 52 2 4.0999999999999998e-01 -3.9492698330707028e+00 9.2960747401003410e+00 -5.7270610157267834e+00 0 -4 -5
511 171 1 -8.1999999999999995e-01 -1.1711632778040024e+00 8.0101660298649904e+00 -7.3078895758761879e+00 -6 5 1
456 29 2 4.0999999999999998e-01 -2.6631423886238679e+00 5.2990785451612163e+00 -8.0386134521448991e+00 5 8 6
349 117 1 -8.1999999999999995e-01 -2.5118381134162089e+00 6.5654584990493694e+00 -9.3394680526124816e+00 4 4 1
518 171 2 4.0999999999999998e-01 -1.6868392344158321e+00 7.4571883648230610e+00 -7.9971021052090858e+00 5 -2 5
221 117 2 4.0999999999999998e-01 -3.3855050694670030e+00 6.6324161903956966e+00 -9.8469200677719382e+00 3 -3 9
478 160 1 -8.1999999999999995e-01 -5.4254814695966163e+00 3.9739020553296758e+00 -7.6858477832724725e-01 -2 3 -1
261 160 2 4.0999999999999998e-01 -5.3244197801137876e+00 3.6157742816417273e+00 -1.7178489751402399e+00 7 -5 -2
229 77 1 -8.1999999999999995e-01 -8.3253069830244506e+00 3.0737104071067285e+00 -4.2979213672146805e+00 -5 -3 7
537 77 2 4.0999999999999998e-01 -7.8384069061973172e+00 3.7364521718642996e+00 -3.6237345643070200e+00 -3 -3 3
503 160 2 4.0999999999999998e-01 -5.3364067588242561e+00 3.0528880350455707e+00 -2.3609844057423268e-01 2 4 7
505 169 1 -8.1999999999999995e-01 -5.0222756191260682e+00 3.3713324615593065e+00 -3.3641678139736859e+00 -3 4 0
227 169 2 4.0999999999999998e-01 -5.2858695874499704e+00 2.4706757369089125e+00 -3.8463026334021424e+00 -2 9 -12
62 244 2 4.0999999999999998e-01 -8.4882465654801216e+00 1.3139668095746675e+00 -3.1217930780347207e+00 -4 -1 1
600 50 2 4.0999999999999998e-01 -5.8562870930111215e+00 4.8391795648847165e+00 -3.7543972547982203e+00 4 1 6
730 244 1 -8.1999999999999995e-01 -8.4985692970294586e+00 5.6099406467814872e-01 -2.4075793358706190e+00 -2 2 7
302 244 2 4.0999999999999998e-01 -9.1316168741795405e+00 7.7827521499414587e-01 -1.5813100945674556e+00 -2 -7 3
375 229 2 4.0999999999999998e-01 -6.9032113770626493e+00 3.9830310540716611e-02 -2.3485982539937136e+00 0 10 4
14 96 2 4.0999999999999998e-01 -3.4221568468502675e-02 3.7263099396819248e+00 -2.6435139601345843e+00 -6 -3 -1
414 226 2 4.0999999999999998e-01 -4.3046608424818107e+00 1.8328257742501153e-01 -2.4375478520072145e+00 3 -1 0
233 41 2 4.0999999999999998e-01 -3.0615099885227037e+00 3.7469253768992319e+00 -9.3290576754836818e-01 2 0 -7
286 96 1 -8.1999999999999995e-01 -6.6474943224092564e-01 4.5547787027483002e+00 -2.7350802310170259e+00 4 5 -7
129 1 2 4.0999999999999998e-01 -7.9138894804502935e-01 4.8210150057567560e+00 -4.5782937641931076e-01 1 -1 -1
676 226 1 -8.1999999999999995e-01 -3.2900341119888710e+00 5.0756414025571606e-01 -2.5795342377071955e+00 -1 -2 0
315 96 2 4.0999999999999998e-01 -1.6156704286696859e+00 4.3188129821971586e+00 -3.0491605708829042e+00 1 -1 -2
111 41 2 4.0999999999999998e-01 -2.7874068542296957e+00 2.0902050671068042e+00 -1.4668667775313664e+00 -5 2 -8
155 169 2 4.0999999999999998e-01 -4.0895112473097752e+00 3.6311604353001159e+00 -3.7733384919190227e+00 4 -1 -3
121 41 1 -8.1999999999999995e-01 -2.4595552729961945e+00 2.9105915367963502e+00 -9.5413732556626385e-01 0 0 -8
745 249 1 -8.1999999999999995e-01 -2.7688838539754532e+00 3.9146587869197691e+00 -4.6718090999301669e+00 -3 -3 -3
2 67 2 4.0999999999999998e-01 -2.1983559326391777e+00 6.0367333468422801e-01 -4.2049664342269351e+00 1 2 -7
363 97 2 4.0999999999999998e-01 -7.6347739486368678e+00 9.5457733204704418e+00 -3.5204624734064041e+00 12 2 1
625 209 1 -8.1999999999999995e-01 -8.8567541667190905e+00 6.5310072887607920e+00 -4.8407929614363177e+00 -1 -6 4
596 94 2 4.0999999999999998e-01 -6.9166235193553867e+00 4.9370286529552221e+00 -2.6872466210895624e-01 0 -5 4
644 97 2 4.0999999999999998e-01 -7.3309598134031395e+00 8.8499737928035049e+00 -2.0210955706203708e+00 0 4 6
440 94 2 4.0999999999999998e-01 -8.4890156024857539e+00 5.1117416538523921e+00 -1.9284205330377011e-01 0 -3 6
148 50 1 -8.1999999999999995e-01 -6.4679396417471411e+00 5.6330798141358924e+00 -3.5534760988961187e+00 0 -1 5
580 194 1 -8.1999999999999995e-01 -7.6800782575441957e+00 9.0073976670807898e+00 -4.9900799669380824e-01 4 -2 -2
321 178 2 4.0999999999999998e-01 -5.8395138479887585e+00 8.4886190847763068e+00 -4.8568539908465835e+00 5 -1 -1
108 28 2 4.0999999999999998e-01 -9.5273854730724921e+00 8.2867913435689449e+00 -3.4061346331867726e-01 -10 -10 3
692 50 2 4.0999999999999998e-01 -5.9158131412983694e+00 6.4306130014590277e+00 -3.2079907687442120e+00 3 1 3
289 97 1 -8.1999999999999995e-01 -6.9379429562560970e+00 9.1284103858374284e+00 -2.9619362903967588e+00 7 2 2
701 203 2 4.0999999999999998e-01 -5.4384845961199098e+00 8.3054198314763727e+00 -2.7497835843765208e+00 -10 9 -1
626 209 2 4.0999999999999998e-01 -7.9638630075424972e+00 6.3802057593582306e+00 -4.3565440349885911e+00 -1 -6 4
541 181 1 -8.1999999999999995e-01 -3.5358708203082614e+00 5.9374334673227649e+00 -6.5054993114749415e-01 7 -1 -1
501 112 2 4.0999999999999998e-01 -1.5230334354087200e+00 9.1208378065883320e+00 -3.2107912138819583e+00 0 -5 3
621 181 2 4.0999999999999998e-01 -3.7677169260682533e+00 6.5204418132208275e+00 -1.4549249904769639e+00 8 8 2
63 112 2 4.0999999999999998e-01 -2.2178962192347771e+00 8.7891214153750106e+00 -4.6834054523906818e+00 0 1 3
334 112 1 -8.1999999999999995e-01 -1.5571431920088887e+00 8.3722814987633214e+00 -3.9312088134137704e+00 -4 -4 -2
633 181 2 4.0999999999999998e-01 -4.2682451727657540e+00 5.1499040281923056e+00 -5.9025761763261453e-01 7 4 -2
17 37 2 4.0999999999999998e-01 -4.7966018611784991e+00 8.4216810606940609e+00 -5.1499574011259686e-01 -8 -10 -4
607 203 1 -8.1999999999999995e-01 -4.6961448678754349e+00 7.5556311095730919e+00 -2.7440764492950600e+00 0 -11 -1
588 203 2 4.0999999999999998e-01 -3.7807824040588951e+00 7.8656750101486521e+00 -3.0853649586387588e+00 -2 -10 1
359 165 2 4.0999999999999998e-01 -6.4057226101997777e-01 6.9748368266763192e+00 -4.3178384692238430e+00 -5 1 1
451 151 1 -8.1999999999999995e-01 -8.6044903366749956e+00 1.8394115706387804e+00 4.0229513679348337e+00 -3 -4 5
458 151 2 4.0999999999999998e-01 -8.0500736978351117e+00 2.6100793844838397e+00 4.4198568824883644e+00 1 0 -6
590 247 2 4.0999999999999998e-01 -5.0972600055004751e+00 2.4181611283397584e+00 2.2005434079883570e+00 -3 -5 8
351 177 2 4.0999999999999998e-01 -8.8850311785754741e+00 2.9229611552305772e+00 8.5523292688256181e-01 -8 1 -9
477 177 2 4.0999999999999998e-01 -8.3873859878567529e+00 2.1827266844949382e+00 2.1695562642520247e+00 -4 0 1
529 177 1 -8.1999999999999995e-01 -8.2914515269526081e+00 2.1890026245114487e+00 1.2113420662639549e+00 -3 2 2
674 51 2 4.0999999999999998e-01 -4.9789293892030226e+00 1.6365780525736788e+00 4.5890614328031631e+00 13 -4 -2
164 132 2 4.0999999999999998e-01 -6.5983886168570161e+00 1.8209188808080619e+00 7.9123316633371066e-01 0 6 -3
586 196 1 -8.1999999999999995e-01 -7.8174042705357962e+00 4.7241943992937845e+00 4.6995425659459551e+00 -2 -6 5
394 132 1 -8.1999999999999995e-01 -5.5584445020883759e+00 1.8392415017700334e+00 7.5845047673507582e-01 -3 3 6
690 145 2 4.0999999999999998e-01 -8.3577223893869164e+00 5.4406379334510757e-01 1.4169564628195654e+00 1 -1 2
252 132 2 4.0999999999999998e-01 -5.1582334241108461e+00 9.0935065938178272e-01 6.1787152646178622e-01 -6 -3 2
279 151 2 4.0999999999999998e-01 -8.0808725769493748e+00 9.5480138529385727e-01 4.1787026388461559e+00 0 10 7
519 86 2 4.0999999999999998e-01 -4.8988470240810750e-01 4.5888088802044180e+00 3.4903003802409622e+00 -3 -3 -5
507 247 2 4.0999999999999998e-01 -4.5979708556531715e+00 3.8435195194947602e+00 3.0052103276947935e+00 -7 -4 12
342 86 2 4.0999999999999998e-01 -5.1126557857939381e-01 4.1857256973161059e+00 1.8832736051312158e+00 1 -3 1
41 126 2 4.0999999999999998e-01 -1.6606674729788589e+00 2.2904729598008613e+00 2.9703182815943099e+00 -1 -1 -5
376 126 1 -8.1999999999999995e-01 -2.1419318588859082e+00 1.4255020554193065e+00 2.8324529204686750e+00 -3 -6 1
739 247 1 -8.1999999999999995e-01 -4.6702102146370521e+00 2.8100746033037778e+00 3.0385780092485146e+00 -8 -2 4
312 126 2 4.0999999999999998e-01 -3.1375933886269589e+00 1.7791995253100357e+00 2.9535256549886779e+00 -4 -7 3
681 30 2 4.0999999999999998e-01 -1.0778221108837756e+00 9.6723536056024695e-01 1.3516277680227713e+00 -6 3 1
256 86 1 -8.1999999999999995e-01 -4.5335583247300726e-01 3.7564363600983195e+00 2.8389512682703426e+00 -4 2 -1
88 30 1 -8.1999999999999995e-01 -7.2190660580860588e-01 1.0371571507729762e+00 3.9692390024362600e-01 4 -2 -4
677 30 2 4.0999999999999998e-01 -1.2429475857189445e+00 1.8413884937609279e+00 4.8270030894203605e-02 -7 -6 1
513 194 2 4.0999999999999998e-01 -6.8696554120034152e+00 8.6673487312605069e+00 7.9396224216200684e-02 -2 0 2
432 196 2 4.0999999999999998e-01 -7.3154861082167564e+00 5.4002484698865283e+00 4.0688654450746267e+00 -3 -8 4
33 139 2 4.0999999999999998e-01 -9.7605557279265138e+00 5.0903562249643173e+00 4.6987975456045046e+00 10 3 -4
329 5 2 4.0999999999999998e-01 -8.2512522110075555e+00 9.6310011486781875e+00 2.6489331617482867e+00 -2 -8 -10
280 94 1 -8.1999999999999995e-01 -7.6324861991645410e+00 5.5946341957377959e+00 3.2032943420670076e-02 -2 0 -4
326 144 2 4.0999999999999998e-01 -7.0255355042782810e+00 7.4573128499804451e+00 2.8717071421020552e+00 3 -4 2
430 144 1 -8.1999999999999995e-01 -6.8198036541865932e+00 6.4429641463546821e+00 2.7212150865046678e+00 5 -7 0
509 144 2 4.0999999999999998e-01 -7.1989525589392693e+00 6.0966834336800586e+00 1.8361729402056004e+00 -1 0 -1
254 215 2 4.0999999999999998e-01 -5.3856190932354417e+00 5.8615063280840838e+00 2.9646176374402513e+00 0 -6 1
109 37 1 -8.1999999999999995e-01 -5.0022292952969947e+00 8.7145896075502254e+00 4.1381079883572885e-01 2 1 -3
13 5 1 -8.1999999999999995e-01 -7.4480838628462438e+00 9.1679388815097447e+00 2.9451167688340951e+00 -4 -8 -8
98 5 2 4.0999999999999998e-01 -7.1758602202316073e+00 9.5872894491392877e+00 3.8646664743463219e+00 6 -3 -2
581 251 2 4.0999999999999998e-01 -1.7498698238050145e+00 6.2433393328964302e+00 4.7479614130315628e+00 1 -1 5
1 1 1 -8.1999999999999995e-01 -6.2559572289757315e-01 5.1582188692559860e+00 5.1863723536102246e-01 -3 0 -7
403 135 1 -8.1999999999999995e-01 -1.7873402702777939e+00 9.6641666263935786e+00 5.0660825394789621e-01 5 -2 0
81 251 2 4.0999999999999998e-01 -1.1904686791033723e+00 7.1523285891367383e+00 3.4601812968537660e+00 7 -8 -8
751 251 1 -8.1999999999999995e-01 -9.0642229090081594e-01 6.3797848527165950e+00 4.1188711712305137e+00 4 3 10
591 37 2 4.0999999999999998e-01 -4.5029916248850892e+00 8.1998705270699350e+00 1.1065448911605607e+00 6 -12 -8
657 215 2 4.0999999999999998e-01 -3.7861655750596368e+00 6.1525624730831341e+00 2.7359322900799135e+00 11 6 -2
643 215 1 -8.1999999999999995e-01 -4.4138908142848647e+00 5.5434149986012908e+00 3.1957767838294142e+00 -5 3 2
158 61 2 4.0999999999999998e-01 -3.1269866116654481e+00 6.5725145614509959e+00 6.8677192374510088e-01 1 2 1
612 129 2 4.0999999999999998e-01 -4.5079442900491867e-01 8.6768568489613234e+00 3.3204778430824428e-01 0 -5 -2
123 61 2 4.0999999999999998e-01 -2.5680601757344759e+00 7.9879959205391469e+00 1.1255022779952739e+00 1 -4 -1
181 61 1 -8.1999999999999995e-01 -2.9828673777639718e+00 7.1383379349456710e+00 1.5325895270491681e+00 3 0 4
431 1 2 4.0999999999999998e-01 -1.0182294700088064e+00 6.0233583325587983e+00 7.9449777627873142e-01 0 -2 4
656 123 2 4.0999999999999998e-01 -7.2885307346516255e+00 7.6621473772659354e-01 8.5351509274216166e+00 -2 3 -5
623 196 2 4.0999999999999998e-01 -7.5699772359618152e+00 4.9301521552275300e+00 5.6360073740392576e+00 -5 -7 6
367 123 1 -8.1999999999999995e-01 -6.9588930636074799e+00 1.1410408961999650e+00 7.6298094663746410e+00 -4 6 2
369 123 2 4.0999999999999998e-01 -6.6239905788087876e+00 2.1129021840680799e+00 7.6857582578809360e+00 -4 6 2
198 100 2 4.0999999999999998e-01 -6.1172103816156360e+00 4.4694037060511516e+00 7.5622102822512485e+00 -1 6 -2
298 100 1 -8.1999999999999995e-01 -5.8506881201816965e+00 3.5970994772826166e+00 8.0681075505982847e+00 1 -1 5
482 174 2 4.0999999999999998e-01 -9.4654186742644200e+00 4.0472018251194042e+00 9.1191802820486974e+00 8 2 3
151 51 1 -8.1999999999999995e-01 -5.4633764894865857e+00 8.2222279697926315e-01 5.0649697710608628e+00 -11 -3 -2
152 51 2 4.0999999999999998e-01 -5.7621387448259309e+00 9.3371357510484410e-01 6.0456911885543514e+00 -11 -3 -2
520 174 1 -8.1999999999999995e-01 -9.7182013875744921e+00 4.6862773300848017e+00 9.8638822123763195e+00 6 3 2
341 100 2 4.0999999999999998e-01 -4.8598547636216267e+00 3.7047088297908517e+00 8.0853581937039163e+00 1 -1 7
658 220 1 -8.1999999999999995e-01 -2.5672053837447808e+00 8.0464867124364514e-01 8.3258907867554797e+00 -10 -3 -1
575 220 2 4.0999999999999998e-01 -3.1499593485193089e+00 1.6401089991010864e+00 8.5349394047891955e+00 -1 0 -4
141 152 2 4.0999999999999998e-01 -2.2197145027609979e+00 4.0998728997160523e+00 8.3598049519915669e+00 14 -11 4
246 220 2 4.0999999999999998e-01 -1.5494012084707867e+00 9.9546861729039493e-01 8.2235116591944806e+00 -1 0 -1
330 152 2 4.0999999999999998e-01 -3.2782001694185938e+00 4.5030240832891684e+00 7.0932911306716280e+00 -6 -2 1
619 207 1 -8.1999999999999995e-01 -7.8209066532888305e-01 4.5724420661124361e+00 9.1889981613513658e+00 4 2 -3
454 152 1 -8.1999999999999995e-01 -3.1163856981372571e+00 3.9263554579277269e+00 7.9310731802574796e+00 3 3 3
417 133 2 4.0999999999999998e-01 -7.3088804311513345e+00 6.5114243518142478e+00 7.4830516716002800e+00 -4 0 -1
397 133 1 -8.1999999999999995e-01 -6.5191455703186003e+00 5.9442241979739556e+00 7.0605270627712979e+00 5 3 0
441 146 2 4.0999999999999998e-01 -8.4168858425675932e+00 8.9045111297236410e+00 7.2430878218935524e+00 2 -1 6
132 87 2 4.0999999999999998e-01 -8.9750548839290545e+00 8.9436632320269283e+00 5.2788238904153033e+00 -1 4 -9
465 63 2 4.0999999999999998e-01 -5.3663739983397347e+00 7.8007178956676526e+00 9.6768438402239862e+00 -6 5 -3
183 122 2 4.0999999999999998e-01 -8.5652074255498949e+00 7.9093896941755748e+00 9.2713894156815932e+00 10 2 0
436 146 1 -8.1999999999999995e-01 -8.0930110327469631e+00 9.0069168401328223e+00 8.1937376233038552e+00 6 5 3
192 133 2 4.0999999999999998e-01 -5.7140435027071188e+00 6.5429723459541531e+00 6.7934877484959317e+00 -4 5 -3
187 63 1 -8.1999999999999995e-01 -5.0578223486809968e+00 8.5984404048934699e+00 9.1174793283160085e+00 -7 4 -3
608 63 2 4.0999999999999998e-01 -5.8436967500248871e+00 9.2589927215089123e+00 8.9986589998118536e+00 -3 -3 -6
510 14 2 4.0999999999999998e-01 -3.5465660645829353e+00 6.6181924067652611e+00 6.1179187736882055e+00 3 1 4
419 14 2 4.0999999999999998e-01 -3.5542298795357667e+00 5.2885772218284126e+00 4.9693151327473508e+00 -9 -2 6
422 117 2 4.0999999999999998e-01 -1.8301489127287678e+00 6.0135879979776261e+00 9.8040038801882936e+00 -8 4 1
40 14 1 -8.1999999999999995e-01 -3.1692524849898946e+00 5.7690076999282045e+00 5.7327880424448665e+00 -3 3 8
118 40 1 -8.1999999999999995e-01 -4.5063911240824863e+00 7.7896767129249422e+00 6.6888839572677643e+00 0 6 -3
471 40 2 4.0999999999999998e-01 -4.7059907311517764e+00 8.2318500989164853e+00 7.5938308856949357e+00 1 0 3
743 40 2 4.0999999999999998e-01 -4.4569523659718788e+00 8.7326872227855095e+00 6.2935073765553149e+00 5 -3 4
47 15 2 4.0999999999999998e-01 4.8630901359494638e+00 -8.6374935930776537e+00 -6.1682273146047590e+00 1 6 6
4 2 1 -8.1999999999999995e-01 3.9521176531009444e-01 -8.7508951661304479e+00 -9.1078418234444314e+00 -8 -10 -2
113 12 2 4.0999999999999998e-01 2.9193845221034382e+00 -8.1249972556317207e+00 -5.2988906658451809e+00 5 -8 0
704 2 2 4.0999999999999998e-01 5.3508121030533629e-01 -7.7358101266541963e+00 -9.0335082758886767e+00 -9 4 -1
107 12 2 4.0999999999999998e-01 1.5971179525872281e+00 -9.0588678325496712e+00 -5.7524146925344599e+00 -7 -13 6
558 182 2 4.0999999999999998e-01 1.2334300622319636e+00 -5.5708028291452596e+00 -7.5431920123317653e+00 -7 5 0
528 182 2 4.0999999999999998e-01 1.7673495924223150e+00 -5.5474835257029902e+00 -8.9991591418393142e+00 13 0 -9
544 182 1 -8.1999999999999995e-01 9.2998100400465955e-01 -5.7692844786343365e+00 -8.5202545863523849e+00 -5 -9 2
34 12 1 -8.1999999999999995e-01 1.8767561631291534e+00 -8.1038330768736699e+00 -5.3878418092613520e+00 3 2 -5
533 46 2 4.0999999999999998e-01 7.5884061695182370e-01 -9.8563472866814905e+00 -7.4389847656019805e+00 8 2 0
388 130 1 -8.1999999999999995e-01 1.4909279038631011e+00 -5.3455951941865427e+00 -5.9721358157399722e+00 1 -3 5
629 118 2 4.0999999999999998e-01 4.7341338792036183e+00 -6.3200830712401848e+00 -5.5062856300741263e+00 2 6 -3
554 130 2 4.0999999999999998e-01 1.4776212579282211e+00 -6.3813557142265775e+00 -5.8952372390344774e+00 5 -7 11
43 15 1 -8.1999999999999995e-01 4.4797541520133173e+00 -8.0574203257737178e+00 -5.3569181557905470e+00 1 0 2
399 26 2 4.0999999999999998e-01 1.7669056906017357e+00 -9.8066084488838801e+00 -9.7320123053551360e+00 -4 0 4
352 118 1 -8.1999999999999995e-01 5.0986013115415201e+00 -5.3554928138495752e+00 -5.4462667239721281e+00 8 9 -5
640 214 1 -8.1999999999999995e-01 6.5941840468439965e+00 -6.8825630411184049e+00 -8.5666839153983219e+00 -2 -1 12
642 214 2 4.0999999999999998e-01 6.0452902063981195e+00 -7.6807908137268290e+00 -8.2210323779115431e+00 -2 -1 12
624 214 2 4.0999999999999998e-01 7.0540292440726482e+00 -6.5122927037975877e+00 -7.7393845384129820e+00 -6 4 -3
733 245 1 -8.1999999999999995e-01 5.6094677422172650e+00 -9.1981922022297535e+00 -7.6573680066315717e+00 -5 1 -1
238 80 1 -8.1999999999999995e-01 7.7453730313425124e+00 -5.4960766252171673e+00 -6.3553237043432222e+00 -2 0 7
92 245 2 4.0999999999999998e-01 5.0686785476804701e+00 -9.3766921742245231e+00 -8.5661849085200377e+00 4 -4 2
204 80 2 4.0999999999999998e-01 6.7951307825477176e+00 -5.4087265419283783e+00 -6.1181848876595151e+00 -3 -5 0
224 225 2 4.0999999999999998e-01 8.9126586562636003e+00 -6.2302794567526458e+00 -5.0220363859804351e+00 -2 -5 -7
476 17 2 4.0999999999999998e-01 3.7969607704715287e+00 -4.1807340398385113e+00 -8.4452516057675027e+00 9 0 2
335 118 2 4.0999999999999998e-01 4.7275434416494484e+00 -4.7789252198032477e+00 -6.2052055949797404e+00 3 -2 -6
306 187 2 4.0999999999999998e-01 4.7323470631037363e+00 -5.5688145841955172e-01 -7.2754429380434820e+00 -9 2 2
469 157 1 -8.1999999999999995e-01 1.0434349249863808e+00 -2.8138506994974106e+00 -6.9567194801836161e+00 3 0 3
647 106 2 4.0999999999999998e-01 1.3494287345871225e+00 -1.1814246830410695e+00 -7.1269002307486788e+00 0 1 -5
255 180 2 4.0999999999999998e-01 3.8797951918648370e+00 -1.7696066397054455e+00 -5.5468426849962054e+00 10 8 -5
143 47 2 4.0999999999999998e-01 4.0395233733921349e-01 -8.4755036322146482e-01 -8.8130546087781454e+00 9 13 -5
93 157 2 4.0999999999999998e-01 1.1703736052050748e+00 -3.8208798781235034e+00 -6.8908789258594716e+00 -5 6 9
49 17 1 -8.1999999999999995e-01 4.3987585079211229e+00 -3.9783007188472967e+00 -7.6568498648949186e+00 -4 -6 1
45 130 2 4.0999999999999998e-01 1.8116450026612574e+00 -4.9146545584423915e+00 -5.1059808422658639e+00 9 -1 -1
559 187 1 -8.1999999999999995e-01 3.9655612607491628e+00 -1.1989198762781832e+00 -7.1127031053401168e+00 1 7 -2
659 17 2 4.0999999999999998e-01 3.9882033403468116e+00 -3.1186864196768265e+00 -7.2976355455532786e+00 -1 0 5
53 157 2 4.0999999999999998e-01 7.1303976220892462e-02 -2.6397801327596375e+00 -6.7387421856202669e+00 2 -1 2
356 187 2 4.0999999999999998e-01 3.0956245612694286e+00 -6.9188692822300613e-01 -7.4614299710948222e+00 3 -1 -2
316 106 1 -8.1999999999999995e-01 1.5626296276519651e+00 -2.2564082257831131e-01 -7.4875036926723020e+00 1 -4 4
474 80 2 4.0999999999999998e-01 7.9343820743341613e+00 -4.7434990031290756e+00 -7.0078932902759323e+00 -2 1 5
668 35 2 4.0999999999999998e-01 8.4691867121892166e+00 -4.2438441167999141e-01 -9.7019892514287225e+00 -4 0 -6
122 125 2 4.0999999999999998e-01 5.5425108645431935e+00 -3.0983241051001875e+00 -8.7824387142957825e+00 1 -2 -4
373 125 1 -8.1999999999999995e-01 6.2012927149905313e+00 -2.4108794582366424e+00 -9.0399090807403066e+00 3 5 -1
534 125 2 4.0999999999999998e-01 7.1531765707662336e+00 -2.9470346553145497e+00 -8.9317646007892737e+00 -7 4 2
257 71 2 4.0999999999999998e-01 8.9391711251297110e+00 -2.9379991852057934e+00 -7.4325492705880638e+00 -4 8 0
211 71 1 -8.1999999999999995e-01 8.5789308927321528e+00 -3.5607633788547428e+00 -8.1441486855324960e+00 3 -4 -2
566 71 2 4.0999999999999998e-01 9.3010173370938798e+00 -4.2770410626166040e+00 -8.3990219131073864e+00 -6 3 -5
699 162 2 4.0999999999999998e-01 9.7445126980797934e+00 -1.8361882363361208e+00 -6.0677129627604955e+00 -5 2 4
362 221 2 4.0999999999999998e-01 9.4265183267847661e+00 -3.7819305439546214e-01 -7.7932805576210269e+00 -10 -1 -4
484 162 1 -8.1999999999999995e-01 9.5501240342470624e+00 -2.7600082930997005e+00 -5.5915573297266832e+00 2 0 2
383 200 2 4.0999999999999998e-01 9.5936905823166718e+00 -2.4167796421911025e+00 -9.8235320220723192e+00 -7 -2 -6
46 16 1 -8.1999999999999995e-01 4.6113762807603083e+00 -8.0074525732928521e+00 -4.6481498359652784e-01 10 5 -5
175 59 1 -8.1999999999999995e-01 8.0754003284668363e-01 -8.8697073532422674e+00 -2.8541793882287387e+00 -1 -9 -1
269 150 2 4.0999999999999998e-01 8.1771612656898501e-02 -7.6498890598110751e+00 -2.0858883531782624e+00 -3 4 -6
95 59 2 4.0999999999999998e-01 1.4367941736516308e+00 -8.6002476922427498e+00 -3.6029752583211283e+00 2 5 -4
377 213 2 4.0999999999999998e-01 3.2945643631051866e+00 -6.4872991279075309e+00 -6.7043995622076213e-01 3 4 -7
231 59 2 4.0999999999999998e-01 1.1306486012559962e+00 -9.7575507285747580e+00 -2.3954214985849731e+00 -1 -7 2
637 213 1 -8.1999999999999995e-01 2.8639499853184471e+00 -5.5940265744823696e+00 -3.8542382466042124e-01 2 3 -5
308 16 2 4.0999999999999998e-01 4.5976199856367517e+00 -9.0373271733741198e+00 -3.6594640651160787e-01 6 3 -3
485 88 2 4.0999999999999998e-01 2.4465219027296246e+00 -8.3996987967065646e+00 -3.3055340843600611e-01 0 -2 0
19 7 1 -8.1999999999999995e-01 5.6457648456572294e+00 -9.5326752529423686e+00 -3.4141290610914248e+00 1 1 0
66 254 2 4.0999999999999998e-01 9.0906422803118581e+00 -8.6663899196718113e+00 -8.3052379884212246e-01 8 9 -3
603 7 2 4.0999999999999998e-01 5.8349663824337519e+00 -8.9451732305328377e+00 -2.6649051885715509e+00 -2 3 -3
323 115 2 4.0999999999999998e-01 5.8367856564310454e+00 -5.2048130735330389e+00 -4.0511910185219353e+00 0 -3 2
64 22 1 -8.1999999999999995e-01 9.8181578069967017e+00 -7.2562963741569089e+00 -1.6933601559191287e+00 0 2 9
673 225 1 -8.1999999999999995e-01 9.6577317081711840e+00 -6.2155228717786546e+00 -4.2203867861983042e+00 -7 3 0
722 15 2 4.0999999999999998e-01 4.9639989259376014e+00 -8.4851627042220361e+00 -4.6095720121316308e+00 0 -3 6
740 22 2 4.0999999999999998e-01 9.6510288689485204e+00 -6.9217474013998883e+00 -2.7118993128957056e+00 -1 0 -2
343 115 1 -8.1999999999999995e-01 6.2999429171481971e+00 -5.0820536758851222e+00 -3.1118765761547387e+00 -5 -3 -1
760 254 1 -8.1999999999999995e-01 8.2599343961461802e+00 -9.0213842198373335e+00 -3.3962601737016718e-01 5 4 3
494 149 2 4.0999999999999998e-01 1.5161254279198317e+00 -3.0859612683054034e+00 -3.9904235510393611e+00 4 3 3
179 180 2 4.0999999999999998e-01 3.4914389145203168e+00 -2.7532727669764823e+00 -4.2003071681845388e+00 -4 7 -6
410 36 2 4.0999999999999998e-01 1.5351079006185646e+00 -2.4761898445811106e+00 -4.5636065481799470e-01 3 3 -3
606 149 2 4.0999999999999998e-01 2.1522407489892443e+00 -3.9405893487795631e+00 -2.7130819935747810e+00 -6 -1 7
244 82 1 -8.1999999999999995e-01 8.8349249761422977e-01 -3.7229206375284036e+00 -1.3637697689612951e+00 0 5 4
445 149 1 -8.1999999999999995e-01 2.2447786633934710e+00 -3.7646505398597951e+00 -3.6948253150638304e+00 3 -8 5
538 180 1 -8.1999999999999995e-01 3.9463246778611061e+00 -1.9301898153953176e+00 -4.5345525122615600e+00 -9 -2 -3
205 69 1 -8.1999999999999995e-01 2.5048492227069770e+00 -1.1246869659178700e-01 -2.9051557100572611e+00 3 -5 -1
726 76 2 4.0999999999999998e-01 8.4339123330000276e-01 -8.9533022640109905e-01 -3.5731630008879103e+00 -3 -2 1
515 136 4 5.0000000000000000e-01 4.3942528401410046e+00 -4.8678805127381679e+00 -8.1924217627621587e-01 -2 -2 3
347 69 2 4.0999999999999998e-01 2.3125683622440709e+00 -5.3376334746745657e-01 -2.0010593456845704e+00 14 -2 -4
462 69 2 4.0999999999999998e-01 3.2630346624472510e+00 -5.2638172478558687e-01 -3.4447096351310971e+00 5 -12 -6
707 243 2 4.0999999999999998e-01 4.7876926903123564e+00 -7.9075768365637189e-01 -8.1658641833258316e-01 -2 6 4
557 82 2 4.0999999999999998e-01 1.0885728096026750e+00 -4.5444986730909500e+00 -7.8927189179777801e-01 -5 6 4
758 211 2 4.0999999999999998e-01 7.3920749466701405e+00 -2.3475189430844843e+00 -3.2951874850717573e+00 5 5 -1
216 211 2 4.0999999999999998e-01 8.6163601830058560e+00 -3.2276283572613056e+00 -4.1003984764236963e+00 2 5 -3
42 243 2 4.0999999999999998e-01 6.1061077691814978e+00 -1.1387309161196153e+00 -1.8331532637777057e+00 -4 13 7
452 143 2 4.0999999999999998e-01 8.7828953124252376e+00 -3.6057598317542636e+00 -1.7843581156466282e+00 3 -7 0
427 143 1 -8.1999999999999995e-01 9.0511357515378386e+00 -3.8560410141964123e+00 -8.3474188295692486e-01 -1 0 7
631 211 1 -8.1999999999999995e-01 7.9658846017589742e+00 -3.2236290592999497e+00 -3.2958435471922551e+00 0 10 0
406 136 3 -5.0000000000000000e-01 5.1714690453053134e+00 -4.2730897317526040e+00 -1.1674535671488586e+00 -10 0 -8
80 136 4 5.0000000000000000e-01 5.0325650013837668e+00 -3.2181541684675570e+00 -1.1913056575050647e+00 -7 -7 -4
328 110 1 -8.1999999999999995e-01 7.2558228627760171e+00 -4.4014338409206527e-01 -2.7200356174149865e+00 -8 -4 -5
727 243 1 -8.1999999999999995e-01 5.4428395293791789e+00 -1.5506870877286154e+00 -1.1991077884948207e+00 3 3 5
36 136 4 5.0000000000000000e-01 5.5899913043760545e+00 -4.6092264911044980e+00 -2.0546776991815929e+00 -1 -1 5
723 115 2 4.0999999999999998e-01 7.0217414723822058e+00 -4.3418442197636873e+00 -3.1732366383232953e+00 -2 -3 2
354 110 2 4.0999999999999998e-01 7.9004625386035521e+00 -3.9014109383811897e-03 -2.0939956180886523e+00 -5 -2 -4
338 175 2 4.0999999999999998e-01 1.5706388178461013e+00 -7.8230535444657159e+00 4.3214204466271475e+00 2 -1 -4
311 213 2 4.0999999999999998e-01 3.0200465359714448e+00 -5.4629733159917393e+00 6.2639901617250249e-01 0 -4 -6
761 175 2 4.0999999999999998e-01 1.6338337053068728e+00 -7.4873927411345926e+00 2.7170416670159114e+00 -1 6 -5
72 24 2 4.0999999999999998e-01 2.8160019040626763e+00 -5.3697035512226092e+00 3.2342189324160002e+00 -9 4 -7
523 175 1 -8.1999999999999995e-01 1.2002765590305928e+00 -8.0595091416966333e+00 3.4296168483681058e+00 3 -7 -4
70 24 1 -8.1999999999999995e-01 2.5813467639944143e+00 -5.2674794879158089e+00 2.2391149790154659e+00 -9 4 -7
248 48 2 4.0999999999999998e-01 4.7306102482641439e+00 -5.0587911668625356e+00 4.7930562065554261e+00 8 -9 3
203 88 2 4.0999999999999998e-01 1.0110522546437104e+00 -7.8929119167289885e+00 3.5984236481520371e-01 -3 -3 -8
262 88 1 -8.1999999999999995e-01 1.5955903943229428e+00 -8.7132887241746406e+00 1.5915689521616835e-01 0 -5 -2
153 33 2 4.0999999999999998e-01 1.6161539283826563e+00 -9.4765181290145399e+00 2.6382421253176638e+00 -10 -2 -6
487 163 1 -8.1999999999999995e-01 5.8631085699146661e+00 -9.8494224613010370e+00 2.7876897175130217e+00 5 -1 5
695 75 2 4.0999999999999998e-01 9.2304542735083750e+00 -5.3651358729064933e+00 1.7754613891219626e+00 -3 4 -2
611 16 2 4.0999999999999998e-01 5.1425852426603980e+00 -7.5996558721003344e+00 3.4652048218538106e-01 0 -1 5
522 163 2 4.0999999999999998e-01 5.4645781784775940e+00 -9.4571132945828449e+00 3.6943675197296351e+00 -5 7 -4
370 124 1 -8.1999999999999995e-01 6.7610098503916349e+00 -7.1939899792866395e+00 1.2613967996041389e+00 3 -6 -3
281 55 2 4.0999999999999998e-01 7.9509121879799389e+00 -5.9513477346763004e+00 4.3906518476440555e+00 -6 0 -7
711 55 2 4.0999999999999998e-01 8.0464744264725621e+00 -7.2737755123750976e+00 3.3981856588281976e+00 7 6 7
223 75 1 -8.1999999999999995e-01 8.3764221949841335e+00 -5.0028993730463922e+00 1.3924738249350188e+00 3 -2 0
671 124 2 4.0999999999999998e-01 7.2628563082768745e+00 -7.8315006459666128e+00 5.7065656397472975e-01 7 -5 0
163 55 1 -8.1999999999999995e-01 7.7014850295629671e+00 -6.9013067431631079e+00 4.2768434712033221e+00 -2 -3 2
212 124 2 4.0999999999999998e-01 7.2888878657476157e+00 -6.2751506445866365e+00 1.2912841335969141e+00 -1 -5 -5
483 190 2 4.0999999999999998e-01 9.0380386595566176e+00 -9.3789421937222421e+00 1.2093594556286207e+00 -5 -8 2
131 163 2 4.0999999999999998e-01 6.1794500348066981e+00 -8.9941307794507228e+00 2.2301556375629659e+00 -5 6 7
6 6 2 4.0999999999999998e-01 6.0193075675337706e+00 -7.2566415695346711e+00 4.7144031428869750e+00 -8 -10 1
568 190 1 -8.1999999999999995e-01 9.6887787885079550e+00 -9.6595252250886716e+00 1.9262485398593003e+00 -8 -2 0
641 217 2 4.0999999999999998e-01 6.5029468636438037e-01 -1.5795816307053101e-01 2.4358631961147239e+00 -8 1 -2
571 191 1 -8.1999999999999995e-01 4.8853765798494964e+00 -1.6250681041791606e+00 4.9286972796033979e+00 -11 5 0
649 217 1 -8.1999999999999995e-01 2.7641114341610612e-01 -1.1048650430713240e+00 2.5720269458482123e+00 9 0 -5
294 36 2 4.0999999999999998e-01 1.0845389558720389e+00 -1.2087279719743007e+00 4.8711200741043542e-01 3 7 0
23 158 2 4.0999999999999998e-01 1.3117908519728794e-01 -3.2386155274547912e+00 2.6878568185855252e+00 -4 3 -1
686 191 2 4.0999999999999998e-01 4.8979543768231553e+00 -8.0409817132083450e-01 4.3411951165680485e+00 -6 -5 3
106 36 1 -8.1999999999999995e-01 1.9078989979768430e+00 -1.5854362320510000e+00 8.0307324086718885e-03 2 -3 0
180 24 2 4.0999999999999998e-01 1.8138287165552467e+00 -4.5697570518671569e+00 2.2571239780768155e+00 1 -13 -5
472 158 1 -8.1999999999999995e-01 1.3442881676332569e-01 -4.2595068584071587e+00 2.4724584503546660e+00 9 10 -6
635 170 2 4.0999999999999998e-01 3.2540268245132560e+00 -4.8991144361173722e-01 2.9636626671086802e-01 -4 2 7
44 193 2 4.0999999999999998e-01 9.7663846768357203e+00 -9.2783310311938849e-01 2.1501502947807514e+00 3 0 -7
693 75 2 4.0999999999999998e-01 8.5750297028880205e+00 -4.3995061109211697e+00 5.8630343974967136e-01 2 3 -1
577 193 1 -8.1999999999999995e-01 8.8356103523730773e+00 -9.7817325810368005e-01 2.6525573734988948e+00 5 1 -5
525 193 2 4.0999999999999998e-01 7.9541006836181092e+00 -9.9786427844368142e-01 2.0931687826722905e+00 2 -3 -3
52 18 1 -8.1999999999999995e-01 5.9008613465331994e+00 -4.2070633842460516e+00 2.0192207428452438e+00 4 -5 -3
461 93 2 4.0999999999999998e-01 5.7546800447657915e+00 -2.4726746121034862e-01 2.3822692546345619e+00 3 2 8
51 48 2 4.0999999999999998e-01 5.1344783532325895e+00 -3.4736713600027773e+00 4.9220411333902332e+00 3 -1 0
79 27 1 -8.1999999999999995e-01 6.3864857316801817e+00 -1.6349302908151304e+00 1.4878320099090798e+00 -5 -12 1
168 27 2 4.0999999999999998e-01 6.2312698556479518e+00 -2.6428920154325195e+00 1.6789496821290992e+00 3 -4 -5
150 18 2 4.0999999999999998e-01 5.6598188530821911e+00 -4.2463013733245125e+00 3.0162907687886498e+00 -5 1 -4
729 18 2 4.0999999999999998e-01 6.8395887023966022e+00 -4.5399549237128305e+00 1.8133352057035208e+00 8 3 10
242 27 2 4.0999999999999998e-01 6.2321906492639529e+00 -1.5573797898759141e+00 5.1248636244514156e-01 -2 -5 1
142 48 1 -8.1999999999999995e-01 5.5206362398815552e+00 -4.3923357005867993e+00 4.7417614896588693e+00 6 5 3
696 202 2 4.0999999999999998e-01 9.6128553243896420e+00 -1.1726597186036118e+00 4.5758107332438378e+00 -5 -1 3
734 198 2 4.0999999999999998e-01 2.0995413764744253e+00 -6.7912316692790444e+00 7.0329060296742583e+00 -1 7 2
592 198 1 -8.1999999999999995e-01 1.8565557544591642e+00 -7.4007385043002536e+00 7.8047183605856016e+00 4 3 11
11 219 2 4.0999999999999998e-01 3.7055538551888070e+00 -5.3002091439509957e+00 9.4472220119502417e+00 5 -3 -2
479 252 2 4.0999999999999998e-01 3.2853100492644438e-01 -8.4701826659181023e+00 7.4844577180147978e+00 -13 -4 3
717 198 2 4.0999999999999998e-01 2.0006097956613864e+00 -6.8810556684179227e+00 8.6841072098771068e+00 -2 -4 2
770 257 5 -1.0000000000000000e+00 2.7651002579468735e+00 -5.7069982920532816e+00 5.2423658701174540e+00 -6 8 1
200 108 2 4.0999999999999998e-01 4.9320509602659088e+00 -7.9280375713048716e+00 9.2602998173325375e+00 0 2 4
322 108 1 -8.1999999999999995e-01 4.8746302845192426e+00 -8.9778936387092703e+00 9.1853893760244478e+00 -10 4 3
521 6 2 4.0999999999999998e-01 4.4562789057530310e+00 -7.6994929589592944e+00 5.2001851178577292e+00 -1 -5 -3
651 218 2 4.0999999999999998e-01 3.8877571502743308e-01 -5.4894702464053964e+00 5.1016487869984743e+00 -3 6 10
91 31 1 -8.1999999999999995e-01 5.3487965932589212e+00 -6.0340989399074987e+00 8.8822295588957338e+00 2 -3 10
16 6 1 -8.1999999999999995e-01 5.4052307859363200e+00 -8.0299796741424139e+00 5.0195719131427889e+00 -8 -6 -1
320 108 2 4.0999999999999998e-01 5.5480283765109597e+00 -9.3356963183232455e+00 8.4531882306270081e+00 0 -5 3
219 148 2 4.0999999999999998e-01 7.9782984954115754e+00 -8.0546374865251131e+00 5.4234484837781567e+00 -5 1 2
374 148 2 4.0999999999999998e-01 7.5175034067271849e+00 -9.5341221237062292e+00 6.0145603311240361e+00 1 8 -2
102 31 2 4.0999999999999998e-01 5.8538376016824989e+00 -5.6092829195783853e+00 8.0591792480521516e+00 -8 6 0
157 53 1 -8.1999999999999995e-01 9.6672905588539582e+00 -5.8917003921219324e+00 7.8255072177704550e+00 4 6 1
442 148 1 -8.1999999999999995e-01 8.3232539309244657e+00 -8.8452353740153544e+00 5.9827355730211966e+00 -7 7 -6
167 109 2 4.0999999999999998e-01 5.3965388125787443e+00 -9.6617450741626527e+00 6.0130995001702097e+00 4 8 -3
546 53 2 4.0999999999999998e-01 8.6777062299632846e+00 -5.6361886980954488e+00 7.6912077812258532e+00 6 -19 3
75 31 2 4.0999999999999998e-01 6.0295854169509449e+00 -6.2178916785440785e+00 9.6650187925029432e+00 4 -2 -3
443 168 2 4.0999999999999998e-01 8.6913751164747595e+00 -9.6596489402756802e+00 9.3777069519207750e+00 2 -1 0
65 250 2 4.0999999999999998e-01 6.0575643379663535e-01 -5.6376921050716389e-01 6.0458245431899105e+00 -8 -1 0
176 111 2 4.0999999999999998e-01 5.2380251926868593e-01 -3.9134642214161486e-01 8.3929129461018146e+00 6 -2 4
105 219 2 4.0999999999999998e-01 3.0043538059938775e+00 -3.7968987444494742e+00 9.3249990558602640e+00 -10 -4 8
413 38 2 4.0999999999999998e-01 3.9431647611315599e+00 -1.4578842980660176e+00 9.0835371040413708e+00 -4 5 3
748 250 1 -8.1999999999999995e-01 5.8256206908704089e-01 -1.2414458008141780e+00 5.2793641762249255e+00 5 -4 0
384 234 2 4.0999999999999998e-01 2.3441837321032928e+00 -2.3817442280610908e+00 7.5890273243621058e+00 -12 2 -5
314 156 2 4.0999999999999998e-01 3.5601039180790330e+00 -1.9680334705107896e+00 5.4554367390532201e+00 1 0 -4
126 156 2 4.0999999999999998e-01 2.7058393202325073e+00 -3.3452891711157067e+00 5.5084542303457766e+00 -4 -2 9
466 156 1 -8.1999999999999995e-01 2.8163294622875372e+00 -2.4618482582348782e+00 6.0225950123775300e+00 -4 4 -3
749 250 2 4.0999999999999998e-01 1.5697708088992146e+00 -1.6034239939931654e+00 5.2564384730525706e+00 5 -4 0
112 38 1 -8.1999999999999995e-01 4.7360073660730997e+00 -7.7342846984659053e-01 9.1065505114242544e+00 -6 4 -1
700 234 1 -8.1999999999999995e-01 2.5062783600567315e+00 -2.3285664501583079e+00 8.6438599668079448e+00 -6 3 6
282 234 2 4.0999999999999998e-01 1.6415648017668756e+00 -2.2405092933545960e+00 9.2338544054592742e+00 -6 0 6
655 219 1 -8.1999999999999995e-01 3.0371821288562568e+00 -4.6398289959413734e+00 9.8588760885238784e+00 4 0 -5
336 72 2 4.0999999999999998e-01 7.9722648893145918e+00 -3.9474621751082686e+00 6.7476100808826098e+00 -1 -4 -1
214 72 1 -8.1999999999999995e-01 7.2930691177215694e+00 -4.6828114265163876e+00 6.8582247333195108e+00 -2 1 0
35 191 2 4.0999999999999998e-01 5.5923691278070313e+00 -1.4792583463265372e+00 5.6897116338127915e+00 6 3 -5
288 200 2 4.0999999999999998e-01 9.3238015980043816e+00 -1.8662353982550974e+00 8.3919388926121936e+00 -2 -4 2
239 72 2 4.0999999999999998e-01 6.7386958904844843e+00 -4.5494808174597328e+00 5.9834852267507088e+00 -1 2 6
58 20 1 -8.1999999999999995e-01 6.4247454040731427e+00 -4.6949942542568396e-01 6.9521253389188793e+00 6 -4 2
303 23 2 4.0999999999999998e-01 9.4023351548886556e+00 -2.0365043664499205e+00 6.1930239189846743e+00 -3 -4 5
240 20 2 4.0999999999999998e-01 5.6703366348554995e+00 -2.4562462321819375e-01 7.6371428891292705e+00 -2 3 -2
675 23 2 4.0999999999999998e-01 7.9397813714071068e+00 -1.4105489412195733e+00 6.9882697346403946e+00 -4 2 5
318 38 2 4.0999999999999998e-01 5.5504597356689054e+00 -1.1447501020853739e+00 9.6836756508330293e+00 8 0 10
67 23 1 -8.1999999999999995e-01 8.7095826660790401e+00 -2.1242746615665644e+00 7.0224006889080979e+00 6 0 -3
598 200 1 -8.1999999999999995e-01 9.7364005133100093e+00 -1.5922324570084818e+00 9.2924422958149844e+00 0 5 -4
628 210 1 -8.1999999999999995e-01 8.6289784941322412e-01 1.9016675716501041e+00 -5.7450355610306767e+00 9 -2 1
56 106 2 4.0999999999999998e-01 1.6566788172847209e+00 4.8572154364236114e-01 -6.7252499118440134e+00 -4 -6 1
542 44 2 4.0999999999999998e-01 4.1919974440403127e+00 3.1177544172483262e+00 -7.3087441433938904e+00 4 6 3
225 74 2 4.0999999999999998e-01 2.4532711473631159e+00 3.6926177982514830e+00 -8.7904274170074643e+00 3 -1 5
220 74 1 -8.1999999999999995e-01 3.0306354790629331e+00 2.8626610307082396e+00 -8.7241846629150963e+00 -1 -8 2
416 92 2 4.0999999999999998e-01 7.3427388690515483e-01 2.1090377950085433e+00 -8.6789730370213967e+00 3 4 4
563 11 2 4.0999999999999998e-01 9.6743866766118047e-01 4.7792589069111200e+00 -7.4684199919035477e+00 4 1 -6
134 210 2 4.0999999999999998e-01 7.0821246011044037e-01 2.6763829262259180e+00 -6.3311510452800333e+00 5 -6 1
31 11 1 -8.1999999999999995e-01 2.1137023921748521e-01 4.6457529589180560e+00 -6.7807454550076702e+00 -4 0 0
114 74 2 4.0999999999999998e-01 3.0585187726984926e+00 2.5403092769938427e+00 -9.7526066899495838e+00 8 -9 -3
138 62 2 4.0999999999999998e-01 5.3948803171034232e+00 1.8963902284195868e+00 -7.9404979358362562e+00 -4 -1 12
130 44 1 -8.1999999999999995e-01 5.0408803883076470e+00 3.4627637410443004e+00 -6.8346721179621355e+00 4 7 2
738 154 2 4.0999999999999998e-01 6.8921574012919988e+00 3.7702808554709861e+00 -6.2187544247072699e+00 3 3 2
184 62 1 -8.1999999999999995e-01 5.6507849469353193e+00 9.1918757394691741e-01 -8.1283139838972804e+00 0 9 0
712 238 1 -8.1999999999999995e-01 9.0045519597387411e+00 2.9065655485362476e+00 -8.2554099135661509e+00 -7 -1 0
460 154 1 -8.1999999999999995e-01 7.8525687900779273e+00 4.0546733161036403e+00 -6.0282674713917759e+00 3 2 -2
585 154 2 4.0999999999999998e-01 7.8232379200311239e+00 4.9020845644989395e+00 -5.4678632190720453e+00 3 -5 -4
237 238 2 4.0999999999999998e-01 8.7035264819533573e+00 1.9191779518251992e+00 -8.4572932298545016e+00 4 -1 6
209 221 2 4.0999999999999998e-01 9.8038647275454345e+00 2.2891163611652968e-01 -6.3299267933839864e+00 2 5 2
171 44 2 4.0999999999999998e-01 4.9547509303849946e+00 4.4602021791982720e+00 -6.7203672041370792e+00 4 0 -1
15 103 2 4.0999999999999998e-01 5.6172083845310654e+00 4.7800501832231994e+00 -8.9343660954797421e+00 -6 4 0
32 35 2 4.0999999999999998e-01 7.2578555619579692e+00 3.7570877274963643e-01 -8.7934967501058914e+00 -4 2 1
428 107 2 4.0999999999999998e-01 8.3691962205047101e+00 1.6400886926614255e+00 -5.0861180472777496e+00 -1 8 1
434 238 2 4.0999999999999998e-01 8.7456534975768694e+00 3.1720185694082379e+00 -7.3162031773880756e+00 6 3 -6
339 204 2 4.0999999999999998e-01 6.4044889264747296e+00 1.2190237002015634e+00 -5.6607398614583762e+00 -7 -2 -14
750 62 2 4.0999999999999998e-01 4.9885094244661765e+00 5.5580855734002910e-01 -8.8098156356849273e+00 -9 -1 3
103 35 1 -8.1999999999999995e-01 8.2647350679927190e+00 3.3453107737394139e-01 -9.0181137008851184e+00 2 4 -6
117 174 2 4.0999999999999998e-01 9.5991349311791581e+00 4.1453927263827426e+00 -9.0637612225232775e+00 5 -1 -3
319 107 1 -8.1999999999999995e-01 9.3380192758578833e+00 1.3489347005548709e+00 -5.2698912534505205e+00 6 -4 -2
276 248 2 4.0999999999999998e-01 1.7761602871494317e+00 6.9688204986145248e+00 -5.0129579387403806e+00 2 6 -2
617 147 2 4.0999999999999998e-01 4.4656755756053581e+00 7.7062253275626027e+00 -9.4575220612530480e+00 2 2 -6
201 201 2 4.0999999999999998e-01 1.7051139913507878e+00 5.3207054884433482e+00 -9.6229524380466582e+00 0 5 -2
601 201 1 -8.1999999999999995e-01 2.0565071263306547e+00 5.2559584082179418e+00 -8.6634117931802326e+00 10 3 8
439 147 1 -8.1999999999999995e-01 3.7857254155295919e+00 7.2826039692888456e+00 -8.7755052469719104e+00 1 -5 -3
401 98 2 4.0999999999999998e-01 4.0906566719696045e+00 6.5117006218966873e+00 -5.7951010507180669e+00 -4 6 7
742 248 1 -8.1999999999999995e-01 2.6033745198550227e+00 7.2826965595747106e+00 -5.4356340439986859e+00 5 0 0
744 248 2 4.0999999999999998e-01 2.3826999369476307e+00 8.1786786499769928e+00 -5.9072576264347196e+00 5 0 0
767 201 2 4.0999999999999998e-01 2.6532354186655067e+00 6.0854085027455440e+00 -8.6397343045618573e+00 8 -1 6
30 147 2 4.0999999999999998e-01 3.0639994409081499e+00 8.0181178238986419e+00 -8.7662295575658060e+00 -5 2 4
136 46 1 -8.1999999999999995e-01 9.9376128773214112e-01 9.2873309508903255e+00 -6.6476267316090967e+00 5 -2 2
173 11 2 4.0999999999999998e-01 1.6957364915541673e-02 5.2802734397789655e+00 -5.9877553126477672e+00 0 -4 -3
438 46 2 4.0999999999999998e-01 3.6333213012912918e-01 8.4763741108225581e+00 -6.8266118062885024e+00 1 9 1
292 98 1 -8.1999999999999995e-01 5.0258155886136553e+00 6.0610625770066937e+00 -5.9805017671386755e+00 -3 -3 11
162 25 2 4.0999999999999998e-01 8.0645392820873738e+00 5.6849096676558357e+00 -8.3739870518222421e+00 5 6 -2
73 25 1 -8.1999999999999995e-01 8.7591030884603942e+00 6.3283247114715833e+00 -7.9013238717166026e+00 -2 7 1
307 103 1 -8.1999999999999995e-01 6.5576735235869386e+00 5.2549838940132725e+00 -9.1913199175203069e+00 -6 5 11
710 98 2 4.0999999999999998e-01 5.4849850331125296e+00 6.7746059079103622e+00 -6.6183786186031179e+00 -4 0 10
746 25 2 4.0999999999999998e-01 9.4915775545679981e+00 6.6177929496154269e+00 -8.5916466705320556e+00 1 11 3
499 167 1 -8.1999999999999995e-01 6.8377143759923706e+00 8.0928644191362977e+00 -6.7443082265818068e+00 -3 0 -6
567 245 2 4.0999999999999998e-01 5.9647499185019779e+00 9.6631290870987208e+00 -7.2616553881458170e+00 -3 -2 3
197 167 2 4.0999999999999998e-01 7.4674867235343649e+00 7.4834034031341092e+00 -7.3142000012921642e+00 -2 -2 -9
504 167 2 4.0999999999999998e-01 7.4940869203941736e+00 8.2117964590129269e+00 -5.9261346731460440e+00 2 -2 -7
480 103 2 4.0999999999999998e-01 6.3178820205788968e+00 6.0889214012670854e+00 -9.7742713955930309e+00 -13 8 0
741 128 2 4.0999999999999998e-01 6.2870854017329680e+00 6.1313149790095780e+00 -4.9932912743356015e+00 -7 3 -1
101 237 2 4.0999999999999998e-01 1.4118757623768918e+00 1.9270678977036513e+00 -2.0838208873031978e+00 -3 3 7
709 237 1 -8.1999999999999995e-01 1.0315316964129719e+00 2.4884576815044444e+00 -2.8397133615068575e+00 0 3 1
453 105 2 4.0999999999999998e-01 1.8142030838300494e+00 4.2449806905612339e+00 -3.0049763372531784e+00 1 -8 0
553 185 1 -8.1999999999999995e-01 1.7095704176465767e+00 2.1400828568159103e+00 -3.2993145675561220e-02 1 -8 4
213 237 2 4.0999999999999998e-01 1.1241974125164818e+00 2.0335113280277173e+00 -3.7381828023139465e+00 -1 0 -4
267 141 2 4.0999999999999998e-01 4.4158193342063292e+00 2.4136041526855760e+00 -2.2912943479687113e+00 -2 1 -3
579 141 2 4.0999999999999998e-01 3.6271139786454922e+00 1.8385350014463939e+00 -3.6279575183091080e+00 0 2 3
421 141 1 -8.1999999999999995e-01 4.5171534740744441e+00 2.1221210195113658e+00 -3.2697942580603199e+00 0 -6 2
337 113 1 -8.1999999999999995e-01 8.3386697984208116e+00 3.5716746781461106e+00 -2.9246118857323027e+00 -6 -8 -8
9 231 2 4.0999999999999998e-01 8.7750042762610150e+00 1.4779211260408032e+00 -1.2673514090606014e-01 2 0 3
691 231 1 -8.1999999999999995e-01 8.9290004385192159e+00 1.2339785022969905e+00 -1.0927567029970573e+00 0 -3 -1
110 113 2 4.0999999999999998e-01 7.5137268206948278e+00 4.2070620687683791e+00 -3.0741774485138875e+00 -6 8 -4
5 204 2 4.0999999999999998e-01 6.0377509562318030e+00 1.6774806051486770e+00 -4.0798014530161710e+00 0 -3 2
172 58 1 -8.1999999999999995e-01 5.6673780709282902e+00 3.6717857015079085e+00 -1.5247301591237600e-01 1 -3 -1
234 227 2 4.0999999999999998e-01 9.3000812538910562e+00 4.1164881618709881e+00 -1.2582421336409062e+00 -6 -3 2
610 204 1 -8.1999999999999995e-01 6.7914158767822199e+00 1.5848048411324556e+00 -4.8229319656577365e+00 10 1 -4
57 231 2 4.0999999999999998e-01 8.6663845840010829e+00 1.9695841579597686e+00 -1.7564737531675303e+00 0 -4 5
679 227 1 -8.1999999999999995e-01 9.7992669431478649e+00 4.2606350616363100e+00 -4.0664442929925237e-01 -8 -2 3
449 113 2 4.0999999999999998e-01 8.3365223370168398e+00 3.0801829951693160e+00 -3.8325371076482857e+00 -3 -13 -1
299 110 2 4.0999999999999998e-01 7.1097075928005022e+00 1.5682617858047332e-01 -3.4003041686847864e+00 -8 -1 -6
313 105 1 -8.1999999999999995e-01 2.4020067960557285e+00 5.0740242968941285e+00 -3.1824601200811227e+00 -3 -2 -2
493 165 1 -8.1999999999999995e-01 1.4172784153320739e-01 6.3417841996275381e+00 -4.5181067234251238e+00 -8 5 1
552 233 2 4.0999999999999998e-01 3.1669720677910891e+00 7.8973419610174282e+00 -1.8888318637570416e+00 -3 -5 -2
762 105 2 4.0999999999999998e-01 2.9723546412108530e+00 5.2359132256572503e+00 -4.0521347463141959e+00 -1 4 -7
632 164 2 4.0999999999999998e-01 2.5334361568872503e+00 5.7320210332281922e+00 -1.3792278844634562e+00 -1 2 3
702 246 2 4.0999999999999998e-01 1.1220676610619362e+00 7.8282499776432886e+00 -1.1614710205176562e+00 0 -2 -4
737 246 2 4.0999999999999998e-01 1.3177889191721430e+00 7.2170406668895799e+00 -2.6078951988509251e+00 6 5 -9
736 246 1 -8.1999999999999995e-01 1.4848662681345648e+00 8.0764202493480131e+00 -2.1167017586801165e+00 6 5 -9
490 164 1 -8.1999999999999995e-01 2.3581155438181707e+00 5.6007260478195713e+00 -3.6989912525050661e-01 7 -6 -3
249 233 2 4.0999999999999998e-01 4.1963669673281885e+00 8.3813533333407744e+00 -6.6107101405741908e-01 0 -7 -1
614 165 2 4.0999999999999998e-01 2.3112733015478309e-02 5.6385366933272518e+00 -3.7805684848400172e+00 -3 9 -2
697 233 1 -8.1999999999999995e-01 4.1561538678773990e+00 8.0143908283303666e+00 -1.6776235455746349e+00 7 7 -6
405 164 2 4.0999999999999998e-01 1.3955032543016028e+00 5.9561535257316534e+00 -1.2672888932322812e-01 2 2 -4
87 4 2 4.0999999999999998e-01 9.8186408199272144e+00 7.0867725156554355e+00 -3.7793622448934143e+00 5 1 5
560 65 2 4.0999999999999998e-01 9.5517588444089814e+00 9.1781061603105911e+00 -3.3405810942486287e+00 -2 -2 0
3 4 2 4.0999999999999998e-01 8.2061156392314061e+00 7.1156084724615187e+00 -3.5403860843245099e+00 -2 3 1
382 128 1 -8.1999999999999995e-01 7.1357033426926382e+00 6.1736733764990053e+00 -4.3453089595593131e+00 -13 -3 2
293 7 2 4.0999999999999998e-01 5.2264285941536119e+00 9.3394480651415783e+00 -2.9829248954449730e+00 -2 -3 5
82 28 1 -8.1999999999999995e-01 9.2682924700846367e+00 8.1758173349489578e+00 -7.1856032256085889e-01 -3 -2 3
266 128 2 4.0999999999999998e-01 6.7549924774835075e+00 5.8814186816137024e+00 -3.4280384056584183e+00 -9 2 0
705 89 2 4.0999999999999998e-01 6.6978710748647385e+00 6.5002060602003695e+00 -7.3315535285095079e-01 -4 6 -9
543 28 2 4.0999999999999998e-01 9.3210820219146555e+00 7.8876930934612997e+00 -1.6671385374267489e+00 5 -6 6
18 3 2 4.0999999999999998e-01 5.2180180834801018e+00 6.5046442375759304e+00 -1.7277178974891270e+00 4 -1 -7
7 3 1 -8.1999999999999995e-01 5.8298536960252054e+00 5.7130792120693918e+00 -1.8508023154288102e+00 5 -2 -2
263 3 2 4.0999999999999998e-01 5.6259403745195158e+00 4.9991144432995078e+00 -1.1239945241405980e+00 -3 0 -2
10 4 1 -8.1999999999999995e-01 9.0947912215239182e+00 7.5927040218111301e+00 -3.2766562134690265e+00 2 -4 5
593 254 2 4.0999999999999998e-01 8.1614369623337151e+00 9.7835213899432496e+00 -7.7564425379424518e-01 12 -3 8
304 102 1 -8.1999999999999995e-01 1.0277894316299394e+00 1.6309764152225266e+00 2.8170409075089209e+00 -2 -4 -8
27 102 2 4.0999999999999998e-01 2.7946889227024574e-01 2.3532855670395225e+00 2.7777527848671544e+00 1 0 -11
368 102 2 4.0999999999999998e-01 1.9129394371179640e+00 2.0640462120154592e+00 3.0379410141989136e+00 5 3 -5
94 32 1 -8.1999999999999995e-01 4.0190661648627239e+00 2.6346346723828913e+00 3.7436521565789578e+00 5 10 0
391 131 1 -8.1999999999999995e-01 4.1343661693599696e+00 4.6807073633030516e+00 1.6277413534708567e+00 -5 -1 -1
324 32 2 4.0999999999999998e-01 4.0179732589631305e+00 3.3093279122432513e+00 2.9558304078091662e+00 2 7 -7
270 185 2 4.0999999999999998e-01 7.6380466922273027e-01 1.7280359028187342e+00 8.1641216105697564e-02 -4 1 0
768 93 2 4.0999999999999998e-01 4.4567100615984172e+00 2.7379045098582461e-01 1.6441356880430875e+00 5 -1 2
756 131 2 4.0999999999999998e-01 3.3552815648872958e+00 4.8723198051503172e+00 9.3453168083341887e-01 -6 5 4
348 32 2 4.0999999999999998e-01 4.2454431377773378e+00 1.7842309315967815e+00 3.1596374825682454e+00 1 8 -5
277 93 1 -8.1999999999999995e-01 4.9289064547664312e+00 3.5186601762220526e-01 2.5162329197158639e+00 4 5 3
508 170 1 -8.1999999999999995e-01 3.8482382715721570e+00 3.3692324559653580e-01 1.6191712155202726e-02 -4 6 8
569 185 2 4.0999999999999998e-01 1.6246824719111623e+00 3.1304258728726229e+00 1.9666131930102235e-01 0 1 3
222 170 2 4.0999999999999998e-01 3.2803275202718960e+00 1.2013149836194024e+00 9.4887269825459142e-02 -1 -5 9
719 138 2 4.0999999999999998e-01 8.4406015746811072e+00 6.1903199309869250e-01 3.2549528396990173e+00 14 -7 -4
83 138 2 4.0999999999999998e-01 9.5106140700774571e+00 1.7038632014765096e+00 3.7256686329508346e+00 -1 -2 5
353 58 2 4.0999999999999998e-01 4.9713723089841455e+00 3.9586152098383933e+00 5.6690164652771091e-01 3 1 -5
412 138 1 -8.1999999999999995e-01 8.5004200466671875e+00 1.6124916064881909e+00 3.4540154781531096e+00 4 1 4
379 127 1 -8.1999999999999995e-01 7.8910946693593962e+00 3.4812680879873805e+00 1.6002156280802318e+00 -1 -3 -3
236 127 2 4.0999999999999998e-01 8.1390125395473216e+00 2.7285748210575598e+00 2.3242811777693171e+00 2 -1 2
69 127 2 4.0999999999999998e-01 7.6389779838552752e+00 4.3318934189577023e+00 2.0611332374091349e+00 0 -2 -4
497 227 2 4.0999999999999998e-01 9.1673022460068765e+00 4.1737795568734875e+00 3.6174800531924062e-01 -3 -7 4
327 153 2 4.0999999999999998e-01 7.1796587938195104e+00 1.7899660872065482e+00 4.6191984112906175e+00 1 4 -2
230 153 2 4.0999999999999998e-01 5.4616049892662488e+00 1.9097182165005697e+00 4.5538920934565894e+00 -1 6 -13
645 58 2 4.0999999999999998e-01 6.4497336661304656e+00 3.3731357931853960e+00 4.2389814121301139e-01 -2 1 1
207 131 2 4.0999999999999998e-01 4.1905816890263052e+00 5.4762919426393335e+00 2.2442712966934759e+00 -8 -5 -3
160 54 1 -8.1999999999999995e-01 4.0515012198394578e+00 9.1911173867957423e+00 6.7488029768588231e-01 2 0 2
446 54 2 4.0999999999999998e-01 4.7708431149446424e+00 9.2514050903923177e+00 1.3596172225474110e+00 -1 -11 6
437 129 2 4.0999999999999998e-01 9.9224930291522506e-01 8.4472303262676967e+00 1.2254004383309118e+00 7 3 0
115 39 1 -8.1999999999999995e-01 1.4952562620739531e+00 7.3607966015047666e+00 4.6780740587731735e+00 10 -5 5
708 95 2 4.0999999999999998e-01 4.6056957713566993e+00 7.6195016468287839e+00 3.4759943102709103e+00 2 6 1
332 39 2 4.0999999999999998e-01 6.4041222345508686e-01 6.8833130115748054e+00 4.2365916317771157e+00 -3 -3 1
283 95 1 -8.1999999999999995e-01 4.0216449622208641e+00 6.7444116914253485e+00 3.4835235388831296e+00 -3 9 6
191 95 2 4.0999999999999998e-01 3.0703502162022782e+00 6.9296188462049493e+00 3.9094769178458511e+00 4 -6 0
99 33 2 4.0999999999999998e-01 1.7789283407681795e+00 8.6579394852195541e+00 3.3778842373278715e+00 -1 -2 3
97 33 1 -8.1999999999999995e-01 1.9867871700487802e+00 9.2432986981157796e+00 2.5873514748685720e+00 -1 -2 3
305 54 2 4.0999999999999998e-01 3.1440598773525874e+00 9.4548715399311281e+00 1.0947729997371454e+00 2 -4 -5
385 129 1 -8.1999999999999995e-01 3.3143822077502127e-01 7.9927917975047453e+00 5.3229558696700474e-01 1 -10 2
467 239 2 4.0999999999999998e-01 6.9304223950322683e+00 6.0465719802094577e+00 1.8768181810232543e+00 -8 6 -1
716 239 2 4.0999999999999998e-01 6.2340293405358160e+00 5.5334700095111389e+00 3.3663865576628256e+00 -6 -1 -5
514 172 1 -8.1999999999999995e-01 7.9155323416789196e+00 8.3990171984686608e+00 3.6632327453263573e+00 3 8 -5
572 172 2 4.0999999999999998e-01 7.1616226100744731e+00 9.0900844162573957e+00 3.4177095533682742e+00 -11 -1 1
265 89 1 -8.1999999999999995e-01 7.0730549707974966e+00 6.8053254891344528e+00 1.8980001775225794e-01 0 9 -5
715 239 1 -8.1999999999999995e-01 7.1067489585050190e+00 5.6858689183408933e+00 2.8356754969286651e+00 -6 -1 -5
278 190 2 4.0999999999999998e-01 9.2302697222949828e+00 9.3342963689669673e+00 2.4874302245788438e+00 2 1 5
582 172 2 4.0999999999999998e-01 7.6449864171051169e+00 7.4744807208554889e+00 3.4076966121887442e+00 0 11 0
747 121 2 4.0999999999999998e-01 9.1840194553882828e+00 8.1507777424001766e+00 4.7461572231749347e+00 -3 1 -12
491 139 2 4.0999999999999998e-01 8.2915218251738789e+00 5.2207869680121668e+00 4.1697973665461161e+00 7 -8 0
415 139 1 -8.1999999999999995e-01 8.9580525931988362e+00 5.0122677437778487e+00 4.9166127970143005e+00 1 0 5
423 89 2 4.0999999999999998e-01 7.9309278280636040e+00 7.3402352891348226e+00 3.4293930055042970e-02 -2 0 -3
706 236 1 -8.1999999999999995e-01 3.2665277603522993e+00 1.6013099973191722e+00 8.7250412345791464e+00 -4 -1 -4
486 111 2 4.0999999999999998e-01 1.4158413976554536e+00 1.1498589774160706e+00 8.0116257253319425e+00 6 -1 -4
390 236 2 4.0999999999999998e-01 3.9648458191227176e+00 1.9244767284367650e+00 8.0562040198914406e+00 -7 -5 5
331 111 1 -8.1999999999999995e-01 6.0700002375954609e-01 5.2373987437975333e-01 7.8610942590298354e+00 -1 -3 -5
156 236 2 4.0999999999999998e-01 3.6628636917485768e+00 6.4459975605940656e-01 8.8199695582315805e+00 -1 -6 2
8 137 2 4.0999999999999998e-01 3.9418676012134313e+00 3.6881737250618034e+00 6.7990471806877419e+00 7 -3 6
365 101 2 4.0999999999999998e-01 2.4469146377487148e+00 4.7377808812255227e+00 7.8885645010223957e+00 1 6 3
409 137 1 -8.1999999999999995e-01 3.5414987810273471e+00 4.4435902826709652e+00 6.2129059034152103e+00 0 2 -3
769 137 2 4.0999999999999998e-01 3.5686228224460841e+00 4.1623751188092317e+00 5.2451918687025492e+00 -2 -5 3
86 207 2 4.0999999999999998e-01 1.2403810089967932e-01 4.9290972808169204e+00 8.8548222865252164e+00 4 1 -3
457 153 1 -8.1999999999999995e-01 6.2924586833482312e+00 1.7221284008414912e+00 5.1618754409726222e+00 2 6 -8
555 114 2 4.0999999999999998e-01 5.9595030351417035e+00 3.5630248653919123e+00 7.8521865341470010e+00 7 -8 3
340 114 1 -8.1999999999999995e-01 5.3769408123450102e+00 2.7766316551400556e+00 7.4826898309488961e+00 -2 -4 0
605 114 2 4.0999999999999998e-01 5.8873226960901723e+00 2.3489566810044091e+00 6.6059527219904437e+00 -3 -3 -2
562 188 1 -8.1999999999999995e-01 9.5587222431574190e+00 7.7233849317579151e-01 7.8746487101014768e+00 -6 -6 -9
104 116 2 4.0999999999999998e-01 9.7615317747966301e+00 2.4240303953986420e+00 7.3533434005559322e+00 -9 6 -2
26 43 2 4.0999999999999998e-01 8.0930382781015719e+00 4.2926007681783807e+00 7.8796634685106675e+00 -1 4 -9
127 43 1 -8.1999999999999995e-01 7.1393387142191944e+00 4.6661645399218923e+00 7.9904591190434733e+00 0 -1 5
665 43 2 4.0999999999999998e-01 7.0694598857167650e+00 4.7018501078026045e+00 9.0581319446740896e+00 2 -6 5
602 188 2 4.0999999999999998e-01 9.4709342896678752e+00 1.0098610162858794e+00 8.8483895198685190e+00 -1 2 2
60 20 2 4.0999999999999998e-01 6.5059644722544272e+00 3.9248113985756089e-01 6.3914836647736371e+00 6 -4 2
346 116 1 -8.1999999999999995e-01 9.6298315573515758e+00 3.5048347721167650e+00 7.2992710871561624e+00 -5 4 -7
90 116 2 4.0999999999999998e-01 9.3242530428229671e+00 3.7728412601606904e+00 6.3591250580599281e+00 -3 -2 -1
76 26 1 -8.1999999999999995e-01 2.5286141096704089e+00 9.3879802157780929e+00 9.5780543031173266e+00 -2 3 6
618 253 2 4.0999999999999998e-01 2.0828742761035524e-01 8.7272701681646438e+00 7.4567210861271978e+00 1 -12 -6
120 39 2 4.0999999999999998e-01 1.3538683986113746e+00 7.5761682240067092e+00 5.6469188055823452e+00 6 -2 6
301 101 1 -8.1999999999999995e-01 1.7496526250029087e+00 5.4294217594253711e+00 8.2611100536074158e+00 -1 -2 1
584 8 2 4.0999999999999998e-01 4.8708167240093143e+00 6.0562015219784300e+00 6.0393458508421096e+00 -1 -6 -1
764 253 2 4.0999999999999998e-01 1.5060390382896320e+00 8.2641725194477118e+00 8.3270200269804615e+00 -3 -12 1
683 101 2 4.0999999999999998e-01 1.6682153402985331e+00 6.3115924595679838e+00 7.7620070964612573e+00 1 3 5
757 253 1 -8.1999999999999995e-01 8.1441338958140141e-01 7.9203758388108998e+00 7.6857397162735994e+00 -1 -3 -4
495 26 2 4.0999999999999998e-01 3.3950458006009763e+00 9.8634415455917832e+00 9.2072816022475070e+00 -5 2 -1
137 78 2 4.0999999999999998e-01 6.7032857121567950e+00 8.0655091737147071e+00 9.2240756391614802e+00 2 1 3
609 109 2 4.0999999999999998e-01 5.7381424120317730e+00 8.3951735690138936e+00 6.4560906053701084e+00 -5 1 1
195 121 2 4.0999999999999998e-01 9.5456166985084714e+00 6.6657721885601351e+00 5.5126510177760721e+00 1 1 1
325 109 1 -8.1999999999999995e-01 5.9943895438230266e+00 9.3872723538563978e+00 6.5032309872151570e+00 -2 1 6
473 8 2 4.0999999999999998e-01 6.2785450961352351e+00 5.8766590858953274e+00 6.9568835760588339e+00 -6 2 2
22 8 1 -8.1999999999999995e-01 5.6633540924441945e+00 6.5464609179348789e+00 6.4340051411306236e+00 -2 -3 3
232 78 1 -8.1999999999999995e-01 5.8494276508602487e+00 7.5380552977806810e+00 9.2137340669294083e+00 -4 0 3
361 121 1 -8.1999999999999995e-01 9.8340982737908362e+00 7.6577897301032980e+00 5.3762822429008628e+00 2 -1 2
89 78 2 4.0999999999999998e-01 5.5895976126940301e+00 7.5943340335158558e+00 8.2585560993337452e+00 8 1 -1
502 168 1 -8.1999999999999995e-01 8.3904758449601928e+00 9.1025236721998386e+00 9.5021861472756122e+00 -5 -5 0
39 168 2 4.0999999999999998e-01 9.0912200640342622e+00 8.4655717278485110e+00 9.8060130323297248e+00 -1 -3 -1

Velocities

498 -1.3095467748248902e-02 -2.6670100338089982e-02 1.4120560842241637e-02
755 1.4658080531654485e-02 4.5457369714061030e-03 -2.5078125848313178e-03
310 8.6495962256005962e-03 -3.5011262414556695e-03 5.0232507257484092e-03
345 -4.5714858953720258e-03 1.2755373032997369e-02 -2.9198566827080747e-03
124 9.4009656906683464e-04 -1.5799614015236656e-03 1.6310577359028382e-03
38 2.1885154200679664e-02 -8.0547040396994601e-03 -5.3811167525656678e-03
725 -1.2037896708226839e-02 -1.9787645683604617e-02 -8.2948182162315420e-03
574 -7.9788695221471792e-04 1.3130158482251187e-03 -2.6055576297424475e-03
694 3.9239290154190068e-03 -1.9766671785790015e-03 2.1089794262337336e-03
687 -3.9991648702853273e-02 4.7060045168549822e-03 1.8346406777431115e-02
194 2.0485637845098662e-02 1.3724678807945371e-02 -7.6222033609587283e-03
718 7.9957265698277680e-04 -5.4788401061240163e-03 -1.9089343592082573e-03
731 5.3240606179752667e-03 -1.0299244592681972e-02 -2.8366030509560210e-02
387 -3.0503048206511631e-03 1.0477159194180218e-04 5.9824648198356098e-03
251 1.4190873534190088e-02 -1.6757821565790997e-02 -2.5978482853965548e-02
425 -3.0951774316404744e-02 2.1431350165370785e-02 2.7432823623334449e-02
116 -1.0138466665279396e-02 -5.5948390502131781e-03 3.1864263037624692e-02
260 -8.5323865698813308e-03 1.8128022745013603e-02 1.1166135216622165e-02
174 -1.8465309547785087e-02 -7.2244329335162730e-04 4.3571851198230538e-03
217 8.3194026451502952e-05 1.7179865080802995e-03 4.9430259434579378e-03
144 -6.9518522656905656e-03 1.8837115386490178e-02 2.2430031494888897e-02
530 6.7421788363679943e-04 -1.6077100317207451e-04 4.4518291814904781e-03
253 4.1601338835814943e-03 2.8606189435924757e-04 5.5479436694607352e-04
548 -1.3982942971875101e-02 5.4714876662540404e-03 -7.5559522257441633e-04
218 -1.9633003748860734e-03 -1.6335916520826197e-02 -3.9302136149942828e-04
732 -2.6005427060831424e-03 1.8468191689589103e-02 1.7500326424271614e-02
688 1.7797907859855272e-03 2.3082631678946136e-04 1.4143085036965458e-03
402 4.6901986611183558e-03 2.0850493992202086e-02 -1.2047197648981343e-03
459 2.5633749187454140e-02 -1.5308821674879474e-02 -9.5849525437762667e-04
426 -2.1415695664329337e-02 2.6419571176950356e-02 -1.8446603546936387e-03
660 -2.0697235778906396e-02 3.0307424581521667e-03 1.6839617927775077e-02
661 4.2061745468197640e-03 -3.1212729404401177e-03 -2.3721332132769415e-03
506 1.8492536300478122e-02 -1.5846590934014738e-02 1.5459645819460390e-03
295 3.3178866486182558e-03 1.1246834171771921e-03 -5.6931381103788974e-03
597 1.7701534259967816e-02 -1.6462064025661734e-03 -7.5375206791258777e-03
721 -8.3329012710654684e-04 5.8811205373049975e-03 1.6643334214431721e-03
190 3.8622009065853173e-03 1.7744842886680389e-03 3.3473395016609462e-03
241 5.4209698265235869e-03 -6.2646584684603358e-03 -2.5735327071430550e-03
488 7.9943905703062229e-03 2.0522211355460330e-02 2.4395898237638384e-02
245 -9.6649864389139160e-03 -2.8189285957622850e-03 -5.0635003840429592e-03
54 -6.3297778388063440e-04 -2.0325350265114547e-02 4.1262186787824470e-03
300 -1.0599326240747277e-02 -8.9321039997034991e-03 1.5649834606496507e-02
576 5.2090963366503802e-03 1.8757094805380729e-02 3.4093625833518847e-02
100 1.4546792295469563e-03 -1.0216757164255056e-03 -8.9337536369177946e-04
450 -5.5786846940283977e-03 -2.0036839112848922e-02 1.3169302012492112e-02
517 -4.8455616076851973e-03 7.0341994465397328e-03 -1.0337122869532608e-03
638 -1.2470231439500021e-02 -1.2751008609954905e-02 -6.5614443086001095e-03
587 2.3118799121826947e-02 4.9950538435877363e-03 1.1004249598414818e-02
616 -9.8198437626133474e-03 6.5831076594258164e-03 -8.9521756022251705e-03
664 -1.5965467787538250e-03 -5.4691595443971657e-03 1.2069387668588246e-03
272 -8.0532952415533522e-03 2.8733491680225207e-03 1.5969998455876541e-02
672 -2.4324389822931371e-02 -3.4551637177103098e-03 -1.1220219769832927e-02
125 -5.5263274376968824e-03 8.6841066226518455e-03 -2.0179886235651798e-02
139 -5.0090059240930323e-04 -2.4105105885940019e-03 -2.3768402296983483e-03
545 -1.5009051732388925e-03 3.8369960511892558e-02 -1.3073738573430240e-02
193 4.1890208392385778e-03 2.6180698303764401e-03 1.0418603368773023e-04
512 -9.4331882647183743e-03 1.1132085822966381e-03 -3.4979300865304250e-03
275 1.3936876913608086e-02 6.9186435591030221e-03 4.8978788351533593e-03
25 -1.1060941086039567e-03 4.8447749529454218e-03 1.7001824932002241e-03
663 1.6794425853385890e-03 -2.1351548102074917e-04 -2.4060889648974820e-03
360 -1.7368151569497028e-02 2.3808241749149816e-02 -9.1062831015722955e-03
684 -1.5310597091121089e-02 -4.8387513923485215e-04 1.0855526477778212e-02
317 -1.2853358575919037e-02 6.8642569345828217e-03 1.0737867686659735e-03
724 4.3066743134312392e-03 -2.4565128853264655e-03 -3.8300245139408792e-04
189 1.2455280243266597e-02 -2.0025520907911327e-02 -2.1368958697538604e-02
678 6.0713819770363215e-03 1.0323141055203129e-03 -3.2144058993470838e-03
720 -1.7908799003044564e-03 8.7498874538349189e-03 6.3387863346580217e-03
128 -2.3800501091863789e-02 6.8325680376708931e-03 6.7198236024542009e-03
448 1.7159910555313007e-03 3.6474514719538657e-03 7.0854318613942030e-03
161 5.8425413063040573e-03 1.8276139352937350e-02 -1.3336315318612823e-02
371 -7.4205317140145239e-03 -3.2885541804538947e-02 2.8745293928258062e-02
463 -8.2464685141543839e-03 -7.2351513517765893e-05 -1.7579066501285160e-03
358 2.3200644956325343e-03 2.5779562026746715e-03 9.3555451176021321e-04
395 6.4851554060394107e-04 2.2866682242459998e-03 -1.0952877021254595e-02
763 5.7443134250214224e-04 -4.3391152025146840e-03 4.2657365807210208e-03
468 -8.4592878479227314e-03 -4.0619806873180488e-02 -5.6087094188386252e-03
526 1.3905989680681832e-03 -9.4851236112343637e-04 -3.4348717099593346e-04
447 -1.0739723960604830e-02 1.7571188723929310e-02 7.0161032045287092e-03
615 -1.1230749647577335e-02 -1.5089450638913746e-02 -1.3853479960605942e-02
583 8.5142887742811779e-04 4.0538530708224803e-03 7.2575000305504878e-04
77 1.5892330413420464e-02 -7.7324805824989275e-03 7.2069508519667985e-03
685 -2.7418175578965824e-03 -4.7758071563992451e-03 -7.3309596242572257e-04
404 2.6745899494606644e-02 2.2962380414163720e-03 -2.3779359657695752e-02
654 -7.9490798523222956e-03 9.0973933062789107e-03 -2.0767923453346767e-03
50 2.1012002803378334e-02 -4.1782432154557911e-03 1.7751478694961409e-02
516 2.2950389343454197e-02 1.3745981318194487e-02 -8.1544104743112647e-03
357 8.3684370260203207e-03 -3.0710528095139475e-03 4.1065423841940346e-03
535 1.6180477989882034e-03 6.8782210683131307e-03 -3.9411382714168641e-03
185 -1.9442122589611678e-02 6.5059051501755697e-04 -9.8377924639875725e-04
166 -2.0869327268925454e-03 2.0115070396516262e-03 3.9618483993745244e-03
418 2.4707869162299161e-03 -4.4647921642521652e-03 8.5636599345865680e-04
140 1.2438735627814073e-02 -2.9017479504719411e-02 -2.4076603949565842e-03
765 1.8740326928187289e-02 1.5708107277724544e-02 1.5064848885005930e-02
536 -8.1363369151645840e-03 -2.0344868132672021e-02 -1.0136710659860994e-02
689 -2.3609041104144654e-03 -3.9717799741577145e-02 -5.1199801358203000e-03
556 1.3090487431320639e-03 -2.6094544032599790e-03 3.1107330034276072e-03
159 2.6991260474347994e-02 -2.9256060097183064e-02 1.8141810796042789e-02
226 3.0729547726134352e-03 -2.6322661377217174e-04 -2.0411640040707726e-03
500 -1.4437457702015148e-02 2.3076137288023271e-03 -9.2420990005274966e-03
74 -3.5341013515293781e-03 -2.6509679115894923e-02 7.0896872244930274e-03
475 -2.3545365747726275e-03 -2.0591346289278761e-03 -1.3362953101258535e-03
243 -5.5762214413388553e-03 -1.6474821871353836e-03 2.8012972318294128e-02
650 -7.1645565255951844e-03 -2.1054215456708169e-02 1.4674811062947423e-02
703 3.3082517744637595e-03 -2.8978748855920840e-03 -6.6025415506457304e-04
653 -7.7903126993102024e-03 -2.5111369049165281e-02 1.6991637423918439e-02
595 -1.4683697139602943e-03 8.3850927186698322e-03 -4.5541634482136502e-03
389 3.3083617186879468e-04 6.6797704493129269e-03 -1.1274184923047130e-02
393 -1.1975438987938588e-02 1.3181159108244472e-02 1.1511515183844075e-02
287 2.7903795773170335e-02 2.8786912373562481e-02 5.2993537841355401e-03
96 3.5819891817736857e-02 1.5012192818514693e-03 -1.5661577820865073e-02
28 2.2257459505442517e-03 3.0942347401414255e-03 -9.4848252870578381e-03
492 2.7645883798892032e-02 3.5840479921724778e-03 -2.4180585809829663e-02
550 4.6175403794241144e-03 -2.2239546035905168e-03 -1.3023352155626267e-04
29 -3.7800944981046152e-03 -1.5477190201194532e-02 -3.2778672537597552e-02
551 1.6686139033034883e-02 -2.0439028504193654e-02 -7.1933032515135507e-04
728 2.2327128009098803e-02 1.2119977223142160e-02 4.6224838961614360e-03
670 1.2117651917790903e-03 3.1685246690164501e-03 -8.0515221194770858e-04
210 4.7920667452816153e-03 2.0644667246014374e-02 -9.2157867709397844e-03
24 -5.7457933239917882e-03 2.2807622476795780e-02 -6.6920993208513767e-03
652 6.5157054086656162e-03 1.1788620788194756e-03 8.3501087122745486e-03
424 -7.8483765793875750e-03 2.9738118639294994e-03 1.0216041767101443e-04
381 -4.3084124212482700e-03 1.5024865314281618e-02 1.9911824439166424e-02
398 6.5113055820273137e-03 6.9682446488310464e-03 -1.3409634076573912e-02
182 2.9492507043786576e-02 2.3620201774442275e-02 4.3506532776753266e-03
235 -3.7703299654864128e-03 -6.7086214384276298e-03 -6.4730534015116298e-03
264 6.2584945373416450e-03 -2.6288204552498671e-02 -1.8008750854377510e-02
165 -1.9647477295283242e-02 -7.1906049383198061e-03 -2.0766534811706232e-03
149 2.0510894838095824e-02 1.0101370234503117e-02 2.7845680766939371e-02
284 1.1736021592954447e-02 -3.0952900589769301e-02 2.1908826280882675e-03
12 1.4130663190722235e-02 8.5964504871809642e-03 1.6698215541949380e-02
333 1.5521807819547557e-02 -9.4091119693954055e-03 -1.0227866211107457e-02
247 -1.2362562054430944e-03 3.3611569616192236e-03 -5.2958367884054392e-04
433 -3.4648758013949990e-03 6.5531359209303692e-03 2.9964161148324205e-03
366 -6.6558562189166053e-03 1.9985360098553690e-02 1.4583521826380058e-03
378 1.6843173907073898e-02 2.2975961158364897e-02 7.8105853429885049e-03
444 1.4797253954729103e-02 -9.2596604911103254e-03 3.1933952006267469e-03
273 1.2283959757309783e-02 1.7048126756150472e-02 1.2702458244035670e-02
646 -3.1739223082944161e-03 2.2209297202170552e-03 -1.1260774723653685e-03
55 9.2031141552928334e-04 -5.5216127394392359e-03 -4.0279597124142918e-03
561 -1.1066335419318488e-02 -1.1616174447006467e-02 1.7260102763517537e-02
680 7.6698952378786885e-03 4.0923928219903588e-03 -1.8780622254310389e-02
489 -2.0435801814041553e-02 3.1751676972206584e-03 1.8678061645950930e-03
37 7.2206630661315234e-03 4.4479820788552128e-03 -4.1231128075665899e-03
753 -4.8672796986944863e-03 -7.5466977857408975e-03 -2.3727131638956771e-02
186 1.1444400776150018e-02 5.8715112685431307e-03 -1.7197090116784056e-02
627 -2.1140830971930192e-02 1.1888448167057171e-02 -9.6159992497801272e-03
170 2.0922243591840464e-03 -1.8779322037859019e-02 2.0160709818473180e-02
481 9.9302391871492965e-04 -3.4333375918995652e-03 1.4998917395440683e-03
613 2.3779855191952571e-03 -2.1833363376077670e-03 -4.8317734850098987e-03
464 -7.0357902198936156e-03 -5.9323363192271259e-04 -1.5021543033716210e-02
411 1.0590244112776422e-02 -2.6317136487207106e-02 -2.4315708943543446e-03
622 6.3716471984556350e-03 2.6743169287709273e-03 4.8929520030215551e-03
258 -3.1211775552093833e-02 -8.0255598206684497e-03 -9.7113221350215544e-03
59 1.4022618255350193e-02 1.1031400751581910e-02 7.9388356692319927e-03
455 -3.6150353482887814e-03 1.1885544535051168e-02 -1.1951603808333825e-02
84 1.1325326873264692e-02 2.4548891704909674e-04 -2.5097035030726956e-02
135 8.6620876500924555e-04 9.4021554079463630e-03 8.7604195737841853e-03
133 -4.6563491679818868e-03 -4.8299766247083577e-03 3.2836118225696401e-03
570 -2.3521934457121630e-02 9.8083051041569259e-03 -2.0955883585650464e-02
147 -4.7412439882914973e-03 1.6922896888240717e-02 2.0090672362751045e-02
565 -3.3822903053020181e-03 -2.3112151670017654e-03 -3.9817021691885548e-03
259 6.0589111093582882e-03 6.1619293660201014e-04 -1.1151603043278069e-03
698 -1.1004400121384874e-02 5.0712429249395131e-03 2.4173805514915152e-02
271 -2.0483710047767456e-03 -3.0106823004594882e-03 -2.1032530482964712e-03
344 -1.4769563349543260e-02 6.3397713045749834e-03 -1.4352273040129896e-02
648 1.9126451323722506e-02 -1.5041467560405940e-02 2.1129978444285824e-02
68 -8.3915750068583282e-03 1.1991892714033945e-02 -4.2566852433953061e-03
290 -1.7429284145281738e-02 1.3470500165390724e-02 -4.1564807396131404e-03
594 -9.2521124331657427e-03 -4.9820923708077548e-03 1.6648877831690060e-02
400 -3.1091693241980153e-04 3.5029293974591035e-03 2.0127226753548460e-04
527 -4.4479007574907466e-03 1.4622225890565808e-02 -8.4936316404883565e-03
119 -1.5964172676416883e-02 2.0130315645986566e-02 2.9724309508607802e-03
228 -3.7816131479569979e-03 2.1226105538224405e-02 2.2743152494226360e-03
61 -6.4155089868378446e-04 8.0691072704117840e-03 1.7491351706248423e-03
754 -1.0864029362077456e-03 6.9577026347823296e-03 7.5587291240222891e-03
202 -3.1824220536463680e-03 -3.0569503763514245e-03 3.0216566378204974e-04
196 1.0387373767313998e-03 3.5281166994565421e-03 -3.7599510753220768e-03
735 9.5592458190941598e-03 2.7033866867065106e-03 1.1963955400666314e-02
21 1.3573092177847022e-02 -3.9032436023893991e-04 -9.7507153094715665e-03
285 1.6276695141936384e-02 -8.5208125011548667e-03 2.3435634452595663e-02
268 3.8404563555418970e-03 4.2232706012789722e-03 1.6705495709267173e-03
420 -3.7556514984796945e-02 -1.4691251909036187e-02 2.2005669468863906e-03
564 -9.6298702146708492e-03 4.3834131452162008e-02 1.4795189008988243e-02
578 5.2578149086434031e-03 7.5838597767061014e-03 -1.4046871716738352e-02
524 1.6001858392603745e-02 -1.3118276383110439e-02 -3.8047766702414158e-02
71 -3.4161491559518462e-02 2.4729187910162348e-02 -4.6262660116496426e-03
208 1.1390807189394887e-03 -1.2563051094716807e-03 -1.6412789648537808e-03
386 1.2587591997114645e-02 7.8812394765592538e-03 -2.7772490513516074e-02
639 -4.1575637644657593e-03 -6.6384916208979249e-03 4.8437892601595818e-04
766 5.5105625212085495e-03 3.1026722020557158e-03 3.1999792060245055e-03
604 2.5520237491918215e-03 -3.2483271338270107e-03 5.4698912937189642e-03
630 1.4934429698892256e-02 -2.3632237549871919e-02 5.6619038541071132e-04
549 1.6096533253127144e-02 -1.0567687357804381e-02 2.0370803333496106e-03
662 1.7619296356098196e-02 -1.3893256340686146e-02 -2.0943651915508302e-02
470 4.6025577834619188e-03 2.0706141475356947e-03 -4.8320372374629937e-03
713 1.4097965715760701e-02 1.3259559278005494e-02 -1.3383665502010624e-04
589 -2.7979490766254370e-03 -3.4540445751642486e-03 9.5825688626443185e-03
634 -4.5289044315466043e-03 4.0775577071164061e-03 -4.3237806246032660e-03
177 -1.6230364292989675e-02 3.0997357793498714e-02 -9.2619374769434791e-03
250 -1.0452882822860599e-03 1.6897739044514923e-03 -5.8351316363698955e-03
666 -1.6374723241860512e-02 -1.0184301878360988e-02 -8.0205541034112510e-03
291 -2.1907863060939583e-02 -1.7499653187894502e-02 7.1177149741147132e-04
636 -2.1227740026866112e-02 1.0551822579373121e-03 -3.3064061829135884e-02
759 4.4297225989590244e-03 -6.4643560460704279e-03 1.3688215410414472e-02
435 -1.9308913547383521e-03 4.9416267996418476e-05 1.1521464213233102e-02
669 -1.5285489629475169e-02 1.3056773130429042e-02 3.7075749899362059e-03
667 -4.6774649148038401e-04 2.2813350580168775e-03 2.8004701465718473e-03
539 -2.9969221435940004e-02 1.3881329726373511e-02 -1.4826143017928031e-02
169 7.1546991434991609e-03 -6.8500826325727305e-04 9.2799854982464727e-04
392 5.2947706879085676e-03 -7.3789782897735415e-03 1.1298413425165231e-02
396 -2.4035127243886369e-02 -1.0820788796176129e-03 -4.0782422070906738e-03
682 2.3449694256915195e-03 8.7046275413805198e-03 4.0709071401509086e-03
355 6.0050253537994236e-04 -5.6235684906675643e-04 -2.0122126476109525e-03
215 -1.0239880695436172e-03 -2.0526955541570108e-02 1.3782746405545986e-02
145 -7.5078834275248757e-03 1.4003900901072624e-03 3.2958137615583592e-03
573 -5.8898977745575260e-04 -2.6738877519961152e-02 -9.3068844580769250e-03
714 -3.7167636454041864e-02 -3.6193592078209440e-03 2.0112423657114683e-02
78 -4.3679434152224623e-03 -1.4401324882439266e-02 -1.5171497563519114e-02
380 -9.3125242098284870e-03 -1.1514451260357763e-02 2.9137302301699693e-02
85 -5.4820951349569672e-05 -2.9519589172248457e-03 -1.0180051207134397e-03
599 -5.9250591563444980e-03 1.3268330433369484e-02 1.9415531789825548e-02
372 -1.7192836797890604e-02 2.2061928443084168e-02 1.4835868535140894e-02
206 -2.4588096250035916e-03 -2.2614988419347653e-04 -8.9906961714745787e-03
309 1.0176205279845285e-02 -2.8366597732409470e-03 -8.1264088604689113e-03
178 1.2117233213156389e-03 -4.4802031956474985e-03 2.7665303528121750e-03
540 -2.9253357523810003e-02 1.6599256988993501e-02 -4.3367485369182737e-02
274 -3.0148989151029377e-03 -2.7935341851251824e-03 -1.5356654030576329e-03
20 -1.7002196718653425e-04 -8.6787901413052544e-03 3.4570706187699901e-03
199 -2.9582950786986909e-03 -4.9914128476483193e-03 -6.8004190806149924e-03
48 -1.0631153231784448e-02 -3.3300597924455425e-04 1.5268729442038049e-02
188 -2.5390981394130596e-02 4.4806536361235907e-03 -3.2252021464842265e-04
350 -1.3805532021136005e-02 3.5015120704663144e-02 -5.6126924664091724e-03
532 1.5115024488926057e-03 -1.6347870827068355e-03 -2.1226381243591682e-04
146 1.4501350227629448e-02 4.5906912742232943e-02 -1.6369583044522009e-03
407 -2.6888675324441176e-02 -1.0829559047701588e-02 4.0631979327563463e-03
531 4.3375190882124978e-02 3.3841688185316690e-03 -3.3599895732970668e-03
496 -2.4782664024840845e-03 8.5339318408521369e-04 8.9308819533176331e-03
429 6.6327427401606208e-03 -3.0294582958137382e-02 -3.5297963743902157e-02
547 1.4593529423965012e-04 4.2781795090919951e-03 1.1237880900458908e-03
752 8.2489321051959226e-04 3.1861848092060878e-02 1.2292035969149065e-03
620 1.2852764802054032e-02 -3.3050437004101996e-03 1.8260837540648295e-02
364 -3.9525312589503104e-03 -8.5756163234789189e-04 -1.7624878741878123e-03
408 4.3217410163915500e-03 -1.3517129539219091e-02 -5.0143286825783109e-03
296 1.5782827465287655e-03 7.6933688997022093e-03 2.5407657558102182e-03
154 -4.1454331495180353e-04 -1.9652982798320110e-04 -6.7422707254282807e-03
297 -7.8927029655941126e-04 -2.3709332485941242e-02 1.3109459451663814e-02
511 -2.9696025481946229e-03 -5.7372413257135955e-03 -6.6863668605976444e-03
456 1.8818827447423165e-03 2.4171399625017593e-02 1.0880009052863522e-02
349 -1.0932403879346147e-03 5.9602771800772482e-03 3.6446658578335456e-03
518 -3.3209375888629378e-02 -9.7959218406166761e-03 -8.6634471767135426e-03
221 -8.9671967744185677e-03 -1.1467604437538496e-02 1.9168152703059230e-02
478 4.3122978864060914e-03 -6.5384554203807167e-03 8.8002498953761929e-03
261 3.0059463735064042e-02 1.4450016388783042e-02 6.6005945003874203e-03
229 -6.7560296065582040e-03 5.1381154316735185e-03 -3.7115244842946741e-03
537 1.3363530672552111e-03 -9.1218766129532742e-03 6.3206205054036286e-03
503 -4.6815595109997018e-03 8.8728169105526822e-03 2.7730211713076053e-03
505 -3.2066999309782363e-03 -8.4090841198285401e-03 -5.4426904060643228e-03
227 1.1605811162344480e-02 -2.5470174222174201e-02 1.3029836254784103e-02
62 -2.4497574618138323e-02 1.6010552860248287e-02 2.3342453261040097e-03
600 -2.5765328609048482e-02 -3.2364151948147075e-02 -3.5142670652707733e-03
730 -4.9279419655738135e-03 -3.7016700825240802e-03 9.8319172359669104e-04
302 -2.7368907513464432e-02 9.2098847965448385e-03 -2.3529577042039541e-02
375 -3.8629569300572077e-02 1.7305032719106109e-02 1.5282927359312014e-02
14 5.8979105950802569e-03 -2.2621896195104803e-02 -1.4770418658276181e-02
414 9.1057732644005667e-03 2.4422104466140935e-02 2.2583569537105880e-04
233 -3.8509661864495233e-03 -5.1237251371473499e-03 -3.4908150445103242e-03
286 2.8223676394404235e-03 -4.1381676802513603e-03 8.0231883032121729e-03
129 2.7503728237840263e-03 5.0782986780468747e-02 -1.2029013086661548e-02
676 1.0066541766621461e-02 -1.6950473944479737e-03 -9.8352651432650345e-03
315 -1.7839794218461557e-02 9.3720451406684407e-04 -7.9628865992175148e-03
111 -2.0153007158450965e-02 -9.1959381577309731e-03 -2.1932395652299748e-03
155 1.1610841025766714e-02 2.1966282239104139e-02 3.5837553945480050e-02
121 -1.0413940984014740e-03 -4.9704441946418912e-03 -1.5447121809579545e-03
745 5.9185990178273439e-03 -9.1141502183021998e-04 -2.0443453353179014e-03
2 9.6353632436313921e-03 -2.5218855671583232e-02 -3.3172591975870393e-02
363 5.9446327519832969e-03 -8.2529950198234076e-03 -4.5567920512546798e-03
625 -2.7579003743214711e-03 2.1890110746974980e-03 -9.9301664195968994e-05
596 -1.7955918849721390e-03 -1.3960457008100308e-02 -6.2539854444688186e-03
644 -1.5776841476616383e-03 2.0064705917843852e-02 2.1986773863949659e-02
440 1.6624617759664839e-02 1.2661427845550531e-03 -2.5777543610467808e-03
148 -7.0750073561034309e-03 -8.8904216289329452e-05 -3.7515185946127264e-03
580 2.0485226339091831e-04 -4.5252634843117814e-04 -3.9889297121521879e-04
321 -3.2423761400275442e-03 1.6987445165030677e-02 -6.3064855563710375e-03
108 -2.6341862104759691e-02 1.4291392674039524e-02 -1.3851764488148774e-02
692 -3.6890170698657895e-03 3.6832688932030540e-03 3.6937886807550924e-03
289 1.3584554394123311e-02 -5.8393708844842749e-03 -5.0609711580957509e-04
701 -9.1583786164466541e-03 6.7968977366070034e-03 1.0684273799781242e-02
626 2.0547309219168412e-02 -2.0680027279261926e-02 -1.4487426470805368e-02
541 1.1445840367101303e-03 1.5989115789868454e-03 1.0315562861387116e-03
501 1.4950312647951937e-02 1.5870894129193229e-02 -1.7046700988136869e-02
621 1.8060946289802950e-02 1.0713205542767031e-02 1.6965029161566152e-02
63 -1.9203998314405522e-02 1.8075577606583230e-02 -8.0523257699835170e-03
334 7.4742280972033065e-03 -3.6837009292171549e-03 -1.9749232645165826e-03
633 5.9054023915054033e-03 -6.8943313957112228e-04 -6.8804068132738167e-03
17 -1.5760468187737315e-02 1.8053180818795914e-03 -3.4463776665854388e-03
607 -3.2068137046506722e-03 1.2559935883643290e-03 -2.2038094798194235e-03
588 -8.7929924551630248e-03 -1.6680957781012366e-02 1.3497880146549653e-02
359 -1.1396361137366791e-02 2.3760237803051721e-03 -3.1297661875656267e-02
451 -2.2274702858353442e-03 -1.5881476483688432e-03 -5.5198047137371619e-03
458 -3.0602803163162325e-02 -1.8315463717953631e-02 1.1693395088332455e-02
590 3.5089748533089025e-03 -1.8988958840883082e-02 7.8270292647250345e-03
351 -1.4473339513370483e-03 2.5437205220275809e-02 6.0438332906920600e-03
477 2.8352642274323742e-02 9.9766365635681198e-03 6.8282136017293639e-03
529 2.4560642777774902e-03 -4.3487113107282484e-05 -5.6477127004177482e-03
674 -2.6247316457319533e-02 -3.3806600448854892e-03 -3.7734497911758010e-03
164 1.5972284904399187e-02 1.6374061762305759e-02 -4.4994158701703018e-03
586 4.8985051327883151e-03 4.9974339176172087e-03 2.8391862805691033e-04
394 -1.4306242640634691e-03 -8.9494958985805555e-04 -3.4904993269935353e-03
690 -1.1236986344010205e-02 -1.4582206675953011e-02 -2.7229275684106248e-02
252 -7.8253849135564938e-03 5.3499932878870908e-03 -1.9621507436009520e-02
279 -3.0945149702046610e-03 1.1841685190625072e-02 -1.0413320865367528e-02
519 5.3665603405841861e-03 -1.3915633414947812e-02 -3.8899250447261211e-02
507 3.7538684111247675e-03 -4.2943858226274431e-03 8.2062985120152070e-03
342 1.8049764171496462e-02 4.3012482191855045e-03 1.5307657686500980e-02
41 -2.0311096524066607e-02 1.1955471921650002e-02 -6.9072160456602350e-03
376 1.8630489286046163e-03 4.9445065415294710e-03 8.9407228028643587e-04
739 3.7050893432642344e-04 1.6633829771192017e-03 4.2176909477453202e-03
312 -1.4335560225950953e-02 4.6320642269664691e-04 1.2715538950011292e-02
681 -8.2386997639742419e-03 -2.1887419951566620e-04 -1.3232647906157391e-02
256 7.0167940296065670e-03 -3.8479045275736428e-03 -5.3419082799697898e-03
88 1.7007732531287374e-03 -9.2601638803678048e-03 3.7147025461653858e-03
677 1.0447113862751135e-03 2.4491445114131951e-02 -2.7290226175358284e-02
513 1.4408796843089725e-02 -4.5481024586248343e-02 -1.6648966861394287e-02
432 2.1458990971254296e-02 1.2763523207440480e-02 -5.2728923801690919e-03
33 -2.2725240875331097e-02 -1.6731289162709765e-04 6.8316073301684975e-03
329 2.6263947916557697e-02 1.2895686991604198e-02 -3.3266700280334956e-03
280 -1.6354145971818376e-03 4.0757751295679304e-03 -2.7627887636950672e-03
326 -1.9053809159872925e-02 1.4763789900388313e-03 -8.0088413363645994e-04
430 2.9421115958241050e-04 -9.5445817280304655e-04 -6.4435164123688273e-03
509 2.1227343654317251e-03 -6.6778950511855919e-03 2.0126440841364938e-02
254 2.6002712331965203e-02 2.6643507849315393e-02 -4.5922649622966985e-03
109 -6.0727186501363575e-03 -4.2325614894210845e-03 -6.6705606109110603e-03
13 -2.3045584947946163e-03 -7.3665878773047679e-03 -1.9885703753964629e-03
98 1.9965891535242759e-02 1.2672054815074340e-02 3.4419626281378117e-02
581 -9.9947927486160448e-03 -1.1748604383378913e-02 1.4183530675948724e-02
1 6.8729989669035424e-03 -2.4539176009603374e-03 -2.6896223272611756e-03
403 1.5153540649284177e-03 2.0848011888749971e-03 2.3575664878425148e-03
81 -1.6563469855082195e-03 -1.3679160985439925e-03 2.2650490302527415e-02
751 -2.8735821274784960e-03 3.7303060970981976e-03 -6.0481695089996054e-03
591 -1.3996997081852819e-02 -5.8325327334668000e-03 -1.5953097873613077e-02
657 -3.4429367243544455e-03 1.0722266221859761e-02 6.3340190611947981e-03
643 -6.5641744519901639e-03 -2.6862284257455548e-03 -4.0387365131931488e-03
158 -1.1325070166994224e-02 8.5353221060328940e-03 -1.5023058989730716e-02
612 -6.0101856688664947e-03 -1.5808158400006676e-02 4.6633990182312092e-05
123 4.6962164799187805e-03 -4.3849779450720406e-03 1.4476494147415165e-02
181 -6.2263348249701382e-03 -5.6802921414123731e-03 -2.5240790079515086e-03
431 -1.9591269368288405e-02 -8.4388353921604192e-03 9.3331158189378851e-04
656 -3.6567574144061054e-03 -2.4068296488207398e-02 -5.7011402701720899e-03
623 1.9276701768047428e-02 -1.7002392178548733e-02 -2.5094861416945077e-03
367 1.1450484917860317e-04 -2.0938951484670681e-04 -1.4154214140701851e-05
369 -3.0731248855564879e-03 1.3143635197262282e-02 -8.1904527194624575e-03
198 -1.3094878355879191e-02 1.2632474517653650e-02 2.6487876440531907e-02
298 -4.5150647949517694e-03 1.1008058725473302e-02 4.4449233218373674e-03
482 -3.9786089844376267e-03 -1.7455645217806230e-02 -9.4504813766074017e-03
151 -2.6761414911771917e-03 3.4103468129319035e-03 3.6218430905101285e-04
152 -1.7234774812212767e-02 -2.4790062047057447e-03 -2.5938157825382183e-02
520 3.1855268178420512e-03 2.5860085139108673e-03 2.9520553592507228e-03
341 1.3353473708305592e-02 2.0212406663680446e-02 -1.6768882566952720e-02
658 2.7381128002828136e-03 5.2173901392482290e-03 -4.4183653247950620e-03
575 -3.5317264543382218e-03 3.4098576057573619e-03 -1.0600081314445172e-02
141 5.3035768259944577e-03 -6.0384218795217215e-03 -2.1534450655582248e-02
246 6.7542282794250319e-03 1.0919224229898848e-02 1.1859544541875117e-02
330 4.1747947013769958e-02 -2.1144740470083996e-03 1.3791017045198981e-02
619 -8.0609512865988477e-04 3.9921980055801255e-03 -5.5252176661998529e-03
454 -4.4503400243158641e-03 -1.1801830403279249e-04 4.5066703031619327e-04
417 1.4475168543891016e-02 3.4531856056161200e-02 1.5213832522259401e-02
397 -3.6218119328154138e-03 -6.8971306693290111e-03 -3.4368350301970567e-03
441 9.3649495450678945e-03 5.7878074054826577e-03 1.5979839710024670e-02
132 -1.0079901840747293e-02 -1.2512142240634691e-02 -1.3454733183003635e-02
465 -2.0757163742319347e-02 3.8602192944529605e-03 -1.4468690735187544e-03
183 -3.8908510902748907e-03 -1.9690840951404904e-02 6.0578999039473018e-03
436 -3.0067582799545272e-04 4.7832516421986906e-03 -9.9155061821323588e-03
192 -1.9015409634995508e-02 -4.6094743247985983e-03 -4.3757867358652771e-03
187 3.3037848932039367e-03 -1.5119251322376378e-03 2.4681914357798070e-03
608 -1.2864792279447809e-02 -9.9338551273323757e-03 7.0811071467919567e-03
510 -4.9675480024674338e-03 1.5853345900758382e-02 -4.2085679500671325e-03
419 1.2277599166629669e-02 8.2576780735459047e-03 -5.7089696569987934e-03
422 -1.1068963231762267e-02 -2.4474268853300962e-02 2.8527783275865689e-02
40 1.8192002313718509e-03 2.3921144506963976e-03 3.7776660455528777e-03
118 -1.8463549774819915e-03 4.3268772235003508e-03 5.8097642750943462e-04
471 -9.1387256124826691e-03 -1.1639505091429823e-02 8.6013880067680893e-03
743 1.9719708216334290e-02 4.7964603702875756e-03 -1.4458217620131675e-03
47 -1.7927371221020300e-02 -7.6864117114383698e-03 5.2962970593005464e-03
4 -3.1761988671127873e-03 -2.5938455368078170e-03 -4.3720207634576937e-03
113 3.6679205828720758e-02 7.4013771817709199e-04 -1.8807200501447591e-02
704 -1.0683814539471556e-02 -1.5452239073258715e-02 -1.9125330485976231e-02
107 4.8408088672150587e-03 -1.6866033373758478e-02 -2.5906488974580942e-02
558 -1.5442733602286055e-02 -2.2515883612342432e-03 3.3969279230330451e-03
528 2.4300309419165830e-02 -1.5934867359155273e-02 1.0143877609394494e-02
544 -1.1922647702176362e-03 8.7387174952548649e-03 -2.8240241233646593e-03
34 3.3224568853051483e-03 -4.5284684409204259e-03 1.0742590083132653e-02
533 2.0191727813290622e-02 6.9713800257962810e-03 -1.0074933803506185e-02
388 1.8661919492768137e-03 -3.2411678646311845e-03 -1.5617896833283818e-03
629 1.0371854308982943e-02 -1.1690819206291472e-02 -6.4110938270667377e-03
554 -1.7841331305030121e-02 1.4312518500379302e-02 3.5359263010071258e-02
43 -1.0075967610004285e-02 1.7642641681607535e-03 -3.5004081516627366e-03
399 -3.0034114056136693e-02 4.8904561903651122e-03 -1.5223307498931589e-02
352 -2.4391301263352043e-03 4.2897931507603357e-03 -6.7609779274081429e-03
640 -7.2620499214884077e-04 -3.0181115754054364e-03 4.9752849270861344e-03
642 2.2021395960332743e-02 1.8908684203056025e-02 1.8732262779611972e-02
624 -1.7784995232589248e-02 2.9522509556718351e-03 1.2653694325072183e-02
733 1.8957737468017993e-03 -1.1715528166444956e-04 3.5507942942646135e-03
238 2.2389592298786461e-03 -2.9260575531709319e-03 -4.5655572232105590e-03
92 -1.3540277893449151e-02 2.6622582090997691e-04 5.1390547701030392e-03
204 1.6850363248271875e-02 -2.4828037504527230e-02 -1.8950724079135294e-02
224 5.1252042690866388e-03 -5.2242417793712422e-03 -2.0320607828056798e-02
476 -8.0668291136127886e-03 3.7549702076443391e-03 -1.5859638870880391e-02
335 -6.2054847416241083e-03 9.0369014445858854e-03 2.0567431732611678e-03
306 1.1765390396445337e-02 6.2245191888444136e-03 -2.0624392922151103e-03
469 -8.7138515876272766e-03 1.2518677325970486e-03 -6.5560965915135751e-03
647 -1.4108011287241104e-02 -2.1317844293073547e-03 -2.6505393123282889e-02
255 -6.2286782388188385e-03 5.0674747287621164e-03 -1.0819288398943158e-02
143 -4.4286790544427425e-03 3.9855064915719756e-03 8.3475791319195924e-03
93 2.9675321847862746e-02 1.1414498950914580e-02 -1.1540436831382794e-04
49 7.5004813562910236e-04 -2.0346245288418250e-03 -2.6801159848864162e-03
45 2.6537667815883976e-02 8.5334984836929939e-04 -1.9547199794805879e-02
559 1.9558614247279170e-03 -6.7475690881214330e-03 3.7247262396756305e-04
659 -1.0777952476450527e-02 -2.9894478938608069e-04 1.9144869526968301e-02
53 1.9182425201158960e-03 -1.1363546639661470e-02 -1.5523783980127730e-02
356 2.5765984815511497e-02 -1.4577148378813317e-02 2.7724052800312767e-03
316 -1.3166108387831436e-03 -6.0077870430538544e-03 5.7441013583640259e-04
474 1.8112276294909274e-03 1.3063556704318373e-02 -3.2586800207456947e-02
668 -1.0722186781271344e-02 3.0178050948157292e-03 7.1453133922595377e-03
122 1.4295742324399925e-02 -2.0612821178358155e-02 5.9269184249200729e-03
373 -4.1555966805322019e-03 7.5703577792816105e-05 4.0993457881836589e-03
534 -2.8020822884174498e-02 -1.1912459226751805e-02 1.1982634075597480e-02
257 -1.5936970110346543e-03 -2.1149045115551320e-02 -6.9991059001644389e-03
211 -8.9015328400627485e-04 -7.7108035448695779e-03 -7.8373474005446354e-03
566 6.1288419928405245e-03 -2.1077911223466233e-02 -5.1211209614639118e-03
699 -1.5432918756825187e-03 1.0611183866515930e-02 -1.1882286662411149e-02
362 2.6420968632296555e-02 -2.5472997025969554e-02 1.9509669087748851e-03
484 1.7979586297503841e-03 9.4609671235086554e-03 -4.8696651040535570e-04
383 -1.2398100000955054e-02 -1.9945663969719043e-03 -1.4748876454210757e-02
46 -5.6821489708380061e-03 3.1941916627337961e-03 4.2500911529614883e-04
175 -5.9196958282621039e-03 -2.2093193091998020e-03 7.5374211260150889e-03
269 2.6908152813496528e-03 1.4198735170037721e-02 2.4283383138408016e-02
95 -1.1000369069315719e-02 3.0747155540638321e-02 1.4875089256183641e-02
377 -1.3324927838078685e-02 -3.1619413999715530e-03 -7.1583844901508915e-03
231 -5.6031573523488679e-04 7.2813643865695631e-03 -4.6354770973215794e-03
637 7.0634489346818607e-04 -2.8178126865506673e-03 -5.4865356737953232e-03
308 -5.4056301689275540e-03 -7.7928120707708203e-03 -1.4994689375192357e-02
485 -1.2153695053344602e-02 1.8486577717456484e-02 -3.9448162572883347e-02
19 -1.4803806068256792e-03 -1.2430379137894730e-02 4.1650829413565914e-04
66 -5.0182653001003968e-03 1.8497107060090997e-02 -8.1861773316927160e-03
603 -1.1579409136294429e-02 2.7037136147397820e-03 -3.0447404233007237e-03
323 -1.7617710283193450e-02 9.2109433234016866e-03 2.1950089351889697e-02
64 2.1910262454465758e-03 -3.1108165338306773e-03 -6.9410027884333935e-05
673 -2.6105159982730982e-03 3.6325624989321865e-04 -7.7437671358134941e-04
722 -2.6235969962498409e-02 2.2261843380153826e-03 1.0161440487968250e-02
740 1.0754735643554543e-02 2.5327361657834931e-03 1.7057644098979932e-02
343 7.4741448515130570e-04 -7.9288015918146644e-04 -3.9837763446246873e-04
760 -1.5432647475605882e-03 -3.9809963905491031e-03 1.7334998576474248e-03
494 -1.0018370256061978e-02 -1.3063588586557517e-02 3.2338295106719836e-03
179 2.0693848118363825e-03 -1.7159386321929537e-02 8.4209136337281137e-03
410 -6.7402040997358026e-03 -8.5601857843933711e-03 -1.8746180509357975e-03
606 1.4799311678382580e-02 -9.5792835148314362e-04 1.6636770822491077e-02
244 8.7275844117066567e-03 -2.4463933276132649e-03 3.6011199361396136e-03
445 7.4038119374214713e-04 -4.5559449090440572e-03 -3.9359562666080091e-03
538 -3.9489405198284673e-03 2.1746842214082854e-03 9.2908110749248332e-03
205 1.0348873622560860e-03 4.2426766602752458e-03 -2.0901924385097206e-03
726 -1.8624356083147249e-03 -1.1717908724651196e-02 -6.7069903516612491e-03
515 8.1066135587372259e-04 -1.1548820058219165e-02 -8.9540671720952682e-03
347 -9.3643255748852971e-03 -3.1756979013850259e-02 -1.8932200110751040e-02
462 -4.2236521547365192e-03 -5.3316780011335354e-03 2.0083499764897417e-02
707 -1.8212805378892177e-02 -6.3598690682849614e-04 3.8301638799318563e-03
557 -4.9451866496953763e-03 1.2994228839889776e-02 -8.9732256339133277e-03
758 7.5670083804534067e-03 3.5186365660835828e-02 1.1499104493305741e-02
216 5.2585453524960791e-03 -3.5783728457625817e-03 1.4969219857951775e-03
42 -2.2135388811837881e-02 -2.6893061120657902e-04 -6.8119392601098767e-03
452 -4.4709987586972920e-03 -1.2061070283680916e-02 2.1372762961628333e-02
427 1.7969850930800221e-03 -4.9473794385931427e-03 6.3543076406937246e-03
631 3.2412790438468266e-04 1.7523077388807411e-03 7.2515570686834912e-04
406 -1.4734230232850221e-03 -2.3063725834417455e-03 4.0368055152847620e-03
80 2.4122907253486394e-02 -1.9040136197798343e-02 -1.8267677181102306e-02
328 5.6580892278457141e-04 -1.7716141409137541e-03 3.1772775222237612e-03
727 -6.2431963243695331e-04 1.2034787070537771e-03 -1.5802174354774480e-03
36 -1.2399640770547437e-02 8.8069936102681858e-03 -2.8617594322533808e-03
723 -9.9078592484589043e-03 1.2291963024195380e-02 1.4333670094141002e-02
354 -5.8846061903809650e-03 -7.9518416555328375e-03 2.0179568711470898e-02
338 9.2352768984970519e-04 2.2795777384333728e-02 -7.8618682258574431e-03
311 -1.7636038598760683e-02 1.8476004286388528e-02 -4.4431717443825045e-03
761 2.5366318942944974e-02 9.2622894343827606e-03 -1.7416748387328550e-02
72 1.7455385082437921e-02 -8.0255258858935499e-03 2.7940636921817877e-02
523 -5.9370867330869421e-03 4.5613686220275836e-03 -5.3295125276533514e-03
70 2.1406050362296554e-03 -6.4213530138420676e-03 1.6540334363591242e-03
248 1.1146081366945625e-02 6.8918357236167020e-03 3.8160728155779188e-03
203 4.3858539144645799e-03 1.0146476232787886e-02 -4.0950391445429958e-04
262 7.2384930532311594e-03 -6.1199291333348166e-04 7.2449461529603670e-03
153 -4.6092113550189598e-03 9.8508268061345012e-03 1.6326559751718588e-02
487 3.5071152623046336e-03 2.6731465353509757e-03 -1.9527198811081202e-03
695 6.2722195833899970e-04 9.8489070157924928e-03 1.3241947113578319e-02
611 5.9082323916831662e-03 1.8127086522594163e-02 -3.5291842638955498e-03
522 -1.4096534663501874e-02 -1.1584262128777671e-02 -1.0893645499784513e-02
370 3.3625389870594472e-03 -3.1647220035667342e-03 -3.3875351398921639e-03
281 -5.7344938393839619e-03 -7.1011397378515318e-03 -1.3783102119482001e-02
711 3.1552785468112354e-02 -5.6765151270127536e-03 4.7318245476398553e-03
223 1.6145193517130875e-03 -1.5039888413211934e-03 -3.8478461601969055e-03
671 2.8110219665775662e-03 -1.0526749680492713e-02 1.0217006487076911e-02
163 2.5101395226363424e-03 -5.8854513887314497e-04 5.9699600182285938e-03
212 -3.9401735665409591e-03 -6.9435243511719747e-03 -3.6836592184472318e-03
483 -1.1512669884237816e-03 3.1100107256414763e-02 2.3969882515975090e-03
131 2.9008483699823475e-02 -2.0143557592606550e-03 -7.8513426679525586e-03
6 -5.2506104807013008e-04 -1.5632217853770558e-02 -4.8360315442455663e-03
568 1.3046535876063293e-04 2.8226614163999421e-03 5.2239370570564226e-03
641 1.4605554875201567e-02 1.0038339340706845e-03 -2.2476085523036676e-02
571 -3.6479720189023547e-04 -4.8157948295898183e-04 4.3425092772521783e-03
649 2.4163717523340840e-03 1.2771742114452594e-03 -6.5895586917068547e-03
294 -2.9811802912801310e-03 1.7049977423666694e-03 -1.6949757551648650e-02
23 -1.0765647829181609e-02 2.2806917920821713e-02 1.7392554495817714e-03
686 -1.4819649279594971e-02 1.6868673219742204e-02 -2.5071808095152425e-03
106 1.8595628840637588e-04 4.3946596275643429e-03 -2.3293643481748369e-04
180 1.2517420788331115e-02 1.1765594774738157e-03 -2.4256958767150141e-02
472 -2.6711054668210658e-03 -1.5214262583484613e-03 -9.8002980075374444e-04
635 -3.2318889096846800e-03 4.1353883626287632e-03 -1.8942210754515871e-02
44 -2.1877218537978654e-03 1.5674099707630385e-02 -2.3115611578550955e-02
693 -1.9004549153214235e-02 3.2652468255753811e-02 1.9985006030474234e-02
577 3.9471404793362721e-03 -3.0068137040205169e-03 4.5446776145633668e-03
525 6.2981165678310247e-03 2.0421660963982312e-03 9.6778564525302375e-03
52 5.1551312990158315e-03 6.4087503173108134e-03 -4.2742847972702591e-03
461 2.0283333793805369e-02 8.7956930836797405e-03 2.6223234111058423e-03
51 1.5480326421717955e-02 -1.6766923761049327e-02 8.9640016736206012e-03
79 5.0234889239223965e-03 3.5080352730331474e-03 -1.3047698127657222e-03
168 2.9301700782051097e-02 -4.6803658182029599e-03 5.1079767071654271e-03
150 -7.8437803022519664e-03 -2.5850017424533345e-02 -1.5156580734450149e-02
729 1.1842629765958608e-02 -1.1194693083402827e-02 2.4749731260294637e-02
242 -1.8589687655702566e-02 1.2080233086153391e-02 1.6755393915330704e-02
142 -1.6046721083514594e-03 -2.2208163015435814e-03 9.2639204397021804e-04
696 -6.0953464560192924e-03 -2.3450450643262621e-02 6.4129889011797802e-04
734 1.2279323418018394e-03 -4.3429043062823353e-03 9.4275974959678512e-03
592 5.2265164094722006e-03 9.0362259024179823e-04 -3.7859142780086053e-03
11 1.5672542039896278e-02 9.6748083322870208e-03 2.4160154295624712e-02
479 -2.0830454249472930e-03 -2.1181270881964209e-02 -4.1669992665033491e-03
717 -3.1106922481019987e-05 2.3372455580280374e-03 -4.0887289511374429e-03
770 5.1516593615703486e-04 -5.2161262906682269e-04 2.3871921145461111e-03
200 -4.8929842460666518e-03 -5.4819009246349715e-03 -6.9765723794093419e-03
322 -1.3782870036431860e-03 5.0562674888993153e-04 -1.4029010706529676e-04
521 7.9121104252884728e-03 1.8117897452592428e-03 -8.3885778790922690e-03
651 -2.7757456466149578e-03 -1.3631871097428987e-02 3.9362512636242864e-03
91 3.1372216452286578e-03 -8.3933818657262495e-03 -3.9937857412700607e-03
16 6.2657291626722084e-03 -2.1667585388316967e-03 3.1532926819117287e-03
320 3.0270631173695160e-03 9.8322056741440289e-03 8.1387521928288345e-04
219 -1.3473863510390623e-02 5.4921273689315462e-03 -8.7283766263710465e-03
374 -5.1441706589093030e-03 -1.0362262631689705e-02 -2.1224338737187522e-02
102 9.8883470750668213e-03 9.9616136979694611e-03 3.1262948671880375e-03
157 2.4456975761772688e-03 -2.5283036975786693e-03 4.1364165585176371e-03
442 -1.1529105835502444e-03 3.7231631222174283e-03 -1.4055318333883200e-03
167 2.4677205146409233e-03 -2.1340062562115920e-02 -4.8502063868529361e-03
546 -2.5274122075111208e-02 7.1849779169154476e-03 -1.7041385441754500e-02
75 1.4438040861375449e-02 1.3700175890772230e-02 1.1814746570129899e-02
443 -2.8908898818930375e-03 -1.2847689337528266e-02 1.5642072076309174e-02
65 9.6228644525812364e-03 -4.2964717878901876e-03 6.6772407459455233e-03
176 -8.1246175830151975e-03 -3.5400416124263763e-02 3.7529263250492316e-04
105 -3.8109580068636782e-03 2.9935066495528066e-02 1.8541792132359351e-02
413 2.2759140232431540e-02 -2.7480509673466932e-02 2.7737663529368763e-04
748 4.3403185440683339e-03 4.4008535078369883e-03 -8.7455647953152828e-04
384 2.2076620687230552e-02 -3.7697369203607833e-02 -6.1615490582315052e-03
314 -4.2172324489388111e-03 6.1942876480794926e-03 2.2983005222676076e-02
126 -2.7524610564011480e-03 2.4939124278288958e-02 1.2524433394151819e-02
466 5.8376048582149996e-03 7.8793542966786589e-03 -1.7470792649611289e-03
749 7.6622666061264312e-03 1.3218563969985695e-02 7.3343711780610187e-04
112 -4.3430273659891046e-04 5.1145727138639406e-03 5.4071352226451362e-03
700 5.3693445088348981e-04 -3.0059632227583843e-04 1.6308892342789495e-03
282 -1.3828260183451490e-02 -1.6580707143154263e-02 7.9637958583685924e-03
655 2.0564653230556724e-03 -2.4998534982623370e-03 -2.1938671708576218e-03
336 -5.5315931848290527e-03 -5.1094770418020118e-03 -6.6793369675077381e-03
214 -5.8819568247995358e-03 -3.8218903847799970e-03 -4.8338193100361457e-03
35 -5.4294231377965772e-03 1.3108189277875392e-02 -8.8583750079548676e-03
288 -3.7400132233045225e-02 -1.0428568271409647e-02 7.0793682329857270e-03
239 3.7400890717081371e-03 -2.7102340757860437e-02 1.2259253144082841e-02
58 1.2062577976359799e-03 2.4964258274933198e-04 5.9504302527190016e-03
303 -1.3990617367856676e-02 -3.7271646735996741e-02 -1.6536889694295290e-02
240 2.5088141555302045e-02 1.5854278933617634e-02 -1.5935719348140367e-03
675 1.3996604081856732e-02 1.4957313218010075e-02 -1.3124979326955869e-02
318 -2.6789808205834195e-02 1.4039927797387010e-02 1.7188800687985683e-02
67 -2.5355194456343861e-03 -3.0230036953128843e-03 -1.8326199155371977e-03
598 4.4009476819805438e-03 2.3865600351615735e-03 2.9263817788584240e-03
628 -4.4703177738359525e-03 5.7064767035568294e-03 3.6741319913488857e-04
56 -9.6797965849188209e-03 -1.1390182320072210e-02 1.1147992899166442e-02
542 -5.5482455238471465e-03 -6.9976443915453291e-03 1.2515247308773131e-02
225 -6.8730472544228875e-03 -3.5294339776783911e-04 2.1953953925756404e-02
220 1.5554995523449516e-03 -3.2667368079998624e-03 3.4791805410426119e-03
416 -1.8836609539965223e-03 -1.1200095525878287e-02 1.5451656851678617e-03
563 5.6345768799852458e-03 -9.5967983215492474e-03 3.2501507304567956e-03
134 -1.4365538332876029e-03 -7.0462768855059209e-03 1.0872551511740911e-02
31 -8.8181568898262300e-04 -1.1323160936608184e-03 -1.7072180612890692e-03
114 6.9983430638118817e-03 -8.0391768271636486e-03 -1.5885116312815341e-02
138 7.0728315179347427e-03 -1.8884758227818182e-02 -2.1395052363198046e-02
130 -4.9649768252565986e-03 -4.2852854347624420e-03 -2.6553781651998307e-03
738 2.0224551571967589e-03 -1.6470091733941823e-02 1.5741993537235217e-02
184 -7.4590214802928339e-03 -2.3206647440703848e-03 8.4406444095762225e-04
712 2.6849576607791059e-03 -1.9994593100361097e-04 2.4015345407134548e-03
460 1.6875724007621904e-03 -2.0244144021895750e-03 1.8661937564423722e-03
585 -9.2155090056075251e-03 3.5758015987930339e-02 1.0634027399063731e-02
237 1.2339550641753922e-02 1.5531405665332924e-02 -1.4987076220079838e-02
209 9.1056097539714987e-03 -3.5055894672513618e-02 -1.7198808161029539e-03
171 5.3268211644043337e-03 -5.6170472311852151e-03 2.9101713381888732e-03
15 -1.5097986387009685e-02 -7.9009290646946083e-03 -3.1942719475152474e-02
32 1.9144811242170199e-03 -1.1334002310814007e-02 -5.9684396676799936e-03
428 3.9941246856210234e-04 -4.0841311354788835e-02 4.8688079392067369e-03
434 -1.1738191909854499e-02 -3.0212696896620823e-02 1.8087278173962242e-02
339 -1.0024219329645340e-02 8.7572808157246433e-03 -9.4867292128252949e-03
750 -4.8536400845306249e-03 3.8679915931020587e-03 5.6019739215319164e-03
103 2.9468751595900589e-03 9.1642964728425608e-03 -3.9932967022084315e-03
117 -9.7502254297237318e-03 -3.5594583274850878e-03 -1.5805988631793770e-02
319 5.1673805352800087e-03 -2.7317218126237395e-03 -5.2747020146642386e-03
276 -6.5111297926900976e-03 1.6425957704181701e-02 4.2171149622571560e-03
617 -3.2050735969662986e-03 -3.0906568882926692e-02 1.4721914102582922e-02
201 1.1494039436021380e-02 2.8331180769253953e-02 -1.4093880727858036e-02
601 1.9864434119776864e-03 -6.1927472345758624e-03 6.3261965951291396e-03
439 3.8405117796765681e-03 2.7284769820836714e-03 1.6096158686765671e-03
401 1.1050289716350106e-02 -3.4954607741250537e-03 1.3867745494191208e-02
742 -3.3194854524387757e-03 1.0282675043309178e-03 8.3401929480875409e-04
744 -8.9473646331747914e-03 3.3408424601268666e-02 3.1196545620015743e-02
767 1.6208392289958382e-02 1.6714043543110325e-02 -6.1198385753728960e-05
30 -8.5432815741420566e-03 5.4213240315021238e-03 2.9777962976249906e-03
136 5.7434755999788492e-03 5.9653726872283593e-04 -4.0684633222219728e-04
173 2.7617710035372912e-03 -1.4109849564183810e-03 -5.0321387937468688e-03
438 1.7845116147056382e-02 1.6998232828611723e-02 2.8013808316324235e-02
292 -4.3216122936357119e-03 7.5722187798046901e-04 2.3654403193322038e-03
162 -1.6356028498273469e-02 -9.8163504841743549e-03 2.2569161416256752e-02
73 6.0197488066260265e-03 -2.7716106777056020e-03 -6.4047544039333004e-03
307 3.2411800173753865e-03 -1.7729545363351640e-03 -1.0102882972055438e-03
710 -2.7515289821652186e-02 -7.2116241932487441e-03 -3.6292883216719557e-02
746 2.1195083304583921e-02 -1.7773496451878212e-02 -4.5175706315262014e-03
499 -1.0202161344502057e-03 5.9802251161350508e-03 3.4004576801367320e-03
567 -1.5436413656492553e-02 -1.4583195195657801e-02 2.8085817370664028e-03
197 -6.1442905787702229e-03 4.7034618261289987e-05 2.2676683675485653e-02
504 -6.6221041474359959e-03 1.6415719056152633e-02 2.5183925394869451e-03
480 3.9695870020429944e-03 1.0882204822278242e-02 5.1313321955914178e-03
741 -1.4251678618942321e-02 5.6341256718511331e-03 -9.1712034090232972e-03
101 1.6470884868129674e-02 -1.4170424547991665e-02 3.7680651112406804e-03
709 5.4314476521042613e-04 2.4574224011697067e-03 2.1076773738147735e-03
453 -2.2227196412734976e-02 2.3724201172216099e-02 2.0551877036605756e-02
553 -4.3471414406578063e-04 -3.6705067288683615e-03 -1.4196960380961062e-03
213 -9.4345561026587602e-03 8.4161102147522794e-03 8.8795247527228682e-03
267 2.0353110812004860e-02 -1.5556010257851272e-02 1.1645767188950596e-02
579 -4.6516132333675941e-03 3.0533484257291060e-02 -2.1084358773609032e-02
421 -2.5143633798401467e-03 2.2750419078670643e-03 4.2960083733326491e-03
337 -3.9665988119727720e-03 -4.3313890608376905e-03 4.4210038975369273e-03
9 -2.3369087356777080e-02 1.8983583660244177e-02 -1.1859106581394538e-02
691 5.9621150140245170e-04 1.3698347920773832e-03 1.7903450384007644e-03
110 -9.5369398603402655e-03 -1.8309337750275309e-02 2.3404012919477832e-02
5 -2.6675190531093719e-02 -1.6597077112907244e-02 1.4504453497427962e-02
172 4.9317363711343116e-03 9.4239121633012991e-03 -2.4784220915216077e-03
234 -1.7265163561173216e-02 -1.1097496289621084e-02 7.5185432947451878e-04
610 -4.2461006203957418e-03 -7.8573575112502198e-03 -2.4295870325326280e-03
57 -2.6517360357755534e-02 2.4889821955276423e-02 -1.5278592470138023e-03
679 -2.2418476786029351e-03 5.4188004731015316e-03 8.8446951004287361e-03
449 2.0765476587718207e-03 1.6570526038463739e-03 1.3753345026856715e-02
299 -1.3638179561788618e-02 4.7228641227027570e-03 2.0493475382530983e-02
313 1.9530242425788600e-03 -2.9430394764960201e-04 8.2252814923369673e-03
493 7.0451610554583344e-04 -6.1188072527037880e-03 -1.9361967644775317e-03
552 7.2180411209475884e-03 -2.4583008688191911e-03 -4.0817188984468861e-03
762 9.7050294082583668e-03 -9.7769623243816467e-03 -3.4399704113590926e-04
632 -5.4784286953893698e-03 -4.1764293563151316e-03 6.4417081777857601e-03
702 8.0327874784518073e-03 8.2739094045831685e-03 -3.2738836436247413e-04
737 -5.9147622370755645e-03 -1.1036736042286531e-03 1.5188083083854770e-02
736 -5.8181721997768747e-03 5.2617420404870285e-03 3.1854888272293521e-03
490 -4.9655308911250064e-03 2.2686375583459407e-03 2.1835538344095046e-03
249 -2.3645214800592999e-02 -1.1884583456058744e-02 -9.6481851494583798e-03
614 -2.4612566143266179e-02 1.5065658052742089e-02 -2.7094873422488910e-02
697 -2.4715465415879544e-03 -5.6171072803735834e-03 -1.2267542785845396e-03
405 -2.1241342665133861e-04 1.1339851216250871e-02 -2.5544896252942449e-02
87 2.7834262001301419e-03 1.7647102730737625e-02 1.3806323419293720e-02
560 2.6632557571371347e-02 -8.1509904523794311e-03 -3.2616276267969549e-02
3 1.8678908888599018e-02 2.2558255043736582e-03 3.4336749176432520e-03
382 6.4541261811203936e-04 3.5059129575145526e-05 -3.4684816358604726e-03
293 1.4422484523717053e-02 -1.8188665680110742e-02 5.6940182535577767e-03
82 5.1512412217478106e-05 4.3124934383934072e-03 -4.3602969334241865e-03
266 -2.0032291324269924e-02 2.2047464362269231e-02 2.7010027360225244e-02
705 2.0553622636790305e-02 7.7798871770587219e-03 3.0061856867660392e-03
543 1.1995020224315703e-02 -5.8021414267167845e-03 1.2049980362014427e-02
18 -5.8531270323118811e-03 2.1383287867306694e-03 -1.2864891299735671e-03
7 -3.3233948290127308e-03 -2.1221505205701969e-03 2.0417001254577670e-03
263 6.6503392478596069e-03 -3.6743833686305924e-03 -1.4639646192443925e-02
10 -1.0515876486006714e-02 6.0072519402571323e-04 8.5231718181089326e-03
593 -3.6278471683871133e-03 -6.5682981394408393e-03 -1.3798027051505592e-02
304 -3.8741598952465196e-03 -5.0406550334955516e-03 -2.6275598972038978e-03
27 3.9234141876582076e-03 -1.8208535251072922e-03 -1.4432852484668855e-02
368 8.1421470479946696e-03 3.3398408145769373e-02 4.2872289275057734e-02
94 -2.2630496262634513e-03 5.3341550409074867e-03 1.3184468298062773e-03
391 3.9123033308581856e-05 4.0365397986435285e-03 5.5349445732323522e-03
324 -8.2879164899510947e-03 7.5483220720467268e-03 7.5099826128221837e-03
270 2.0416214839320060e-02 -4.9491983459055387e-03 9.1501815857633270e-03
768 9.0905451229013647e-03 2.3841284430342240e-03 6.6400598306343096e-04
756 -3.3457780288820411e-02 1.2556439849539315e-02 -2.9599251045086764e-03
348 -4.5598378956884745e-03 2.4181612948049453e-02 9.9692516454380434e-03
277 -9.5346362751375200e-04 -5.8970648562805600e-03 4.4034831275679802e-03
508 3.2123118221565735e-03 1.0465043748777022e-03 -6.5611772859986654e-03
569 2.7242876395519120e-02 1.5044232413261866e-03 1.7442513774002664e-02
222 -2.6869013329148005e-02 -1.2204008102816770e-03 1.0824367477718895e-02
719 -9.3488955649053719e-03 -1.2531146207358223e-02 1.5241295078957332e-02
83 1.3690040624391685e-02 -1.2655512062540368e-02 1.0061132732433153e-02
353 7.1305412684598167e-03 -5.5097900284649245e-03 6.7590095153319343e-06
412 3.3032074137838486e-03 -5.7627918446623749e-05 3.0717696534956068e-03
379 5.6198343577979620e-03 -6.8496319513526398e-04 -1.6100327151341966e-03
236 -2.7261974439352706e-03 6.0767573192965622e-04 -1.0883577250230904e-02
69 1.8660841296389147e-02 1.0522046664156412e-02 1.4234687303799150e-02
497 9.8712668297557989e-03 6.0617804730601814e-03 1.5920192004451456e-02
327 1.7449420681884958e-02 -2.8418308801003694e-02 -8.0485906118229044e-03
230 8.6274349310226772e-03 -1.4435074091990291e-02 -1.2298168013156788e-02
645 1.0931374098491813e-02 -8.4353699199971998e-03 1.5207369743974205e-02
207 1.0493184123279310e-03 4.2004146616994630e-03 1.2541693605299486e-03
160 6.5272873967324608e-03 4.3506364129276952e-03 6.7372898863957463e-03
446 -2.1986732567876859e-02 2.5143997316657615e-02 -2.4187876182858642e-02
437 -2.2470079329104501e-02 1.9793357519410894e-02 1.0965288493829861e-02
115 -4.6657557784096949e-03 -1.9445969781032068e-03 2.5852280267964394e-03
708 -1.5278772525882979e-02 -4.8680399971188625e-03 -2.0310448617686244e-02
332 -7.5073095314983308e-03 5.2048187713314735e-03 2.2517996976264283e-02
283 -7.3057122348263491e-04 -1.4071157914938429e-03 -2.1878068121612554e-03
191 2.4745166770469697e-02 5.6495367876455548e-03 -8.2635422523611394e-03
99 6.0427656602974316e-03 1.3233061338008055e-02 6.0705563118974909e-03
97 8.8653326289626251e-03 3.2995013176651510e-03 4.7077788176147703e-03
305 -1.0202609270232451e-02 -1.1981609928015620e-02 1.3710325526334572e-02
385 -1.2641973854713795e-02 6.6715195087568664e-03 -1.8532488827636821e-03
467 -8.2371465517927804e-04 -1.6784078127129697e-02 -2.6866591272775003e-02
716 5.3588270783290429e-03 1.7431134263137010e-02 1.3554776272962015e-02
514 1.7392927406047181e-03 2.7826512381826534e-03 1.4639560263004791e-03
572 3.8457368100501383e-03 -1.0868087841843252e-02 6.9828626189561674e-04
265 5.1181523809725364e-03 9.7256210117956771e-04 -3.3287026792006981e-03
715 -2.7602796273140957e-03 -2.4515306539662322e-03 4.7545436372739011e-03
278 1.6347724988919402e-02 -8.7545677624368248e-06 2.1658023655545457e-02
582 2.3280903660388985e-03 4.0456898946591097e-03 -1.3155043714492665e-02
747 1.0956772084206071e-02 2.6009147500957292e-03 4.6565199686950413e-03
491 -6.7163703618652801e-03 3.1854818109805965e-03 5.9208753973301678e-03
415 -3.0557493669366455e-03 2.5737439331118815e-03 -3.6613046644966862e-03
423 1.2704184729079901e-02 1.4732508551578628e-02 1.1355249617418267e-02
706 -2.2979060944767304e-03 4.4989055600120646e-03 1.8458045355075104e-03
486 -1.9117187032793269e-02 9.8106907766512216e-04 -1.5902064855241701e-02
390 -3.6821844104449039e-02 2.3452981153460208e-02 -1.4243656394985716e-02
331 2.3928358886220200e-03 3.1623141744545440e-03 -7.8297460189971271e-03
156 1.2050776142431241e-02 4.2133189381894825e-03 -4.8433527390847178e-02
8 3.3156979330578167e-04 -2.2066047592811154e-03 -4.4755224720727602e-03
365 -1.8738943115349668e-02 -1.5229010763022605e-02 -1.9709503800111595e-02
409 -2.7965249388217741e-03 -2.3446070440978932e-03 -5.4845597025223276e-03
769 1.0593096025413393e-03 1.7572881588878708e-02 4.3781261489371495e-03
86 2.8303120648879226e-02 1.7466361711530799e-02 -8.0107326815188912e-03
457 -8.4790185774483249e-03 -4.9612179199089558e-03 3.6722596744164135e-03
555 -3.0554212855742301e-03 -8.5614116071032250e-03 6.3552014209904842e-03
340 4.3972446236921377e-03 -4.2978244777631047e-03 -6.2817471869586073e-03
605 -1.6636270596683777e-02 -1.0988760169012058e-03 -7.2505410289073832e-05
562 2.0775696426630443e-03 1.9626909089231767e-03 3.9872907833441866e-04
104 1.2565286125395368e-02 1.7414962750974990e-03 -1.4626023579976917e-02
26 -2.2904965546431445e-02 9.7876037773639724e-03 1.2308843102603075e-02
127 -3.6963502464673056e-04 2.2761092326053231e-03 4.5054916131549202e-05
665 -3.3289291794260427e-02 -1.4232831921888711e-02 -3.4365328934587696e-03
602 1.6958412840313478e-02 -3.7003119533179113e-02 -9.4450532807812872e-03
60 -2.1695908358738778e-02 -2.3609214112286368e-02 -1.6425783362044165e-02
346 4.6212863305538261e-03 -1.7403778462784733e-04 2.3066902207959802e-03
90 -5.8752230953712375e-03 1.3864607506630388e-03 9.4547525507534154e-03
76 5.8976571723960989e-03 2.4751119885921668e-03 -1.1127486131360763e-02
618 -2.0255892693336833e-02 -2.8980027358231817e-03 1.0670746080967854e-02
120 -8.9962684939435700e-03 8.9625414345327684e-03 -7.7702943973892418e-03
301 -5.3319117397737578e-03 3.1564813811658762e-03 -1.5266982453395737e-03
584 7.7790761527707902e-03 1.5879695983419345e-02 7.5337988408747105e-03
764 1.1737688303153093e-02 3.1633524101383637e-03 -6.0078578254805105e-03
683 1.3092684210572365e-02 1.8100419586857912e-02 6.3133706950762557e-03
757 1.1959992965812876e-03 -1.8921597614347460e-03 4.2053638184553566e-03
495 5.2412462936361924e-03 3.9842773834298682e-03 -5.0775435445083996e-03
137 -1.0506517679050571e-02 1.9146871985839718e-02 1.7957540861864914e-02
609 1.2425133756156344e-02 3.8526655057850010e-03 2.3229413328589261e-02
195 2.5934707595271639e-03 1.3651252776527159e-03 4.1744314088894520e-03
325 -7.3017563020133297e-03 1.0062773397712841e-03 2.7345960758999623e-03
473 -7.3417429164389994e-03 3.6795561440839718e-03 1.7423810066484646e-02
22 -1.5820633103900516e-03 -5.0695155070239377e-03 2.5305744036392311e-04
232 2.3673224337657237e-03 -3.5338676312540070e-03 7.4390157479782863e-03
361 -5.4009782188956120e-04 8.6265593320968481e-04 3.9477683135292659e-03
89 -8.8528540577424517e-03 -1.9153893864329332e-02 1.9961702886874713e-03
502 -1.0654715116078580e-03 7.5769484660035967e-05 2.6006015492818714e-03
39 -1.0597849682253165e-02 -1.6196968784668004e-04 1.3443450074100118e-02

Bonds

1 1 310 38
2 1 310 345
3 1 124 251
4 1 124 387
5 1 574 317
6 1 574 725
7 1 694 755
8 1 694 498
9 1 718 54
10 1 718 194
11 1 217 144
12 1 217 174
13 1 253 218
14 1 253 548
15 1 688 530
16 1 688 402
17 1 661 209
18 1 661 362
19 1 295 654
20 1 295 660
21 1 721 420
22 1 721 731
23 1 190 506
24 1 190 450
25 1 241 488
26 1 241 597
27 1 100 272
28 1 100 666
29 1 517 638
30 1 517 662
31 1 616 125
32 1 616 672
33 1 664 587
34 1 664 576
35 1 139 143
36 1 139 300
37 1 193 678
38 1 193 560
39 1 25 275
40 1 25 663
41 1 724 492
42 1 724 393
43 1 448 447
44 1 448 269
45 1 463 371
46 1 463 161
47 1 358 684
48 1 358 360
49 1 763 395
50 1 763 468
51 1 526 459
52 1 526 128
53 1 583 512
54 1 583 77
55 1 685 50
56 1 685 375
57 1 535 185
58 1 535 516
59 1 166 561
60 1 166 753
61 1 418 536
62 1 418 765
63 1 556 159
64 1 556 500
65 1 226 726
66 1 226 689
67 1 475 650
68 1 475 243
69 1 703 333
70 1 703 389
71 1 595 653
72 1 595 96
73 1 28 698
74 1 28 455
75 1 550 29
76 1 550 551
77 1 670 210
78 1 670 149
79 1 652 165
80 1 652 651
81 1 424 285
82 1 424 182
83 1 235 398
84 1 235 24
85 1 247 404
86 1 247 489
87 1 433 690
88 1 433 366
89 1 646 273
90 1 646 378
91 1 55 12
92 1 55 444
93 1 37 284
94 1 37 381
95 1 481 170
96 1 481 636
97 1 613 464
98 1 613 258
99 1 622 627
100 1 622 411
101 1 133 135
102 1 133 287
103 1 565 84
104 1 565 578
105 1 259 594
106 1 259 132
107 1 271 344
108 1 271 648
109 1 400 425
110 1 400 687
111 1 61 228
112 1 61 147
113 1 754 479
114 1 754 21
115 1 202 732
116 1 202 735
117 1 196 68
118 1 196 290
119 1 268 728
120 1 268 119
121 1 208 71
122 1 208 386
123 1 766 630
124 1 766 524
125 1 604 696
126 1 604 680
127 1 589 470
128 1 589 713
129 1 634 549
130 1 634 177
131 1 250 639
132 1 250 291
133 1 667 759
134 1 667 539
135 1 169 669
136 1 169 309
137 1 682 714
138 1 682 396
139 1 355 426
140 1 355 392
141 1 145 215
142 1 145 573
143 1 85 372
144 1 85 456
145 1 178 380
146 1 178 540
147 1 274 416
148 1 274 20
149 1 199 206
150 1 199 2
151 1 532 321
152 1 532 531
153 1 496 620
154 1 496 146
155 1 547 429
156 1 547 752
157 1 364 408
158 1 364 183
159 1 154 260
160 1 154 297
161 1 511 296
162 1 511 518
163 1 349 221
164 1 349 422
165 1 478 261
166 1 478 503
167 1 229 435
168 1 229 537
169 1 505 227
170 1 505 155
171 1 730 62
172 1 730 302
173 1 286 315
174 1 286 14
175 1 676 74
176 1 676 414
177 1 121 233
178 1 121 111
179 1 745 599
180 1 745 188
181 1 625 626
182 1 625 407
183 1 148 600
184 1 148 692
185 1 580 189
186 1 580 513
187 1 289 644
188 1 289 363
189 1 541 621
190 1 541 633
191 1 334 63
192 1 334 501
193 1 607 701
194 1 607 588
195 1 451 458
196 1 451 279
197 1 529 477
198 1 529 351
199 1 586 623
200 1 586 432
201 1 394 252
202 1 394 164
203 1 376 312
204 1 376 41
205 1 739 590
206 1 739 507
207 1 256 342
208 1 256 519
209 1 88 677
210 1 88 681
211 1 280 596
212 1 280 440
213 1 430 509
214 1 430 326
215 1 109 17
216 1 109 591
217 1 13 98
218 1 13 329
219 1 1 431
220 1 1 129
221 1 403 264
222 1 403 615
223 1 751 581
224 1 751 81
225 1 643 657
226 1 643 254
227 1 181 158
228 1 181 123
229 1 367 369
230 1 367 656
231 1 298 341
232 1 298 198
233 1 151 674
234 1 151 152
235 1 520 482
236 1 520 117
237 1 658 575
238 1 658 246
239 1 619 86
240 1 619 48
241 1 454 330
242 1 454 141
243 1 397 192
244 1 397 417
245 1 436 527
246 1 436 441
247 1 187 465
248 1 187 608
249 1 40 419
250 1 40 510
251 1 118 743
252 1 118 471
253 1 4 704
254 1 4 116
255 1 544 528
256 1 544 558
257 1 34 113
258 1 34 107
259 1 388 45
260 1 388 554
261 1 43 722
262 1 43 47
263 1 352 629
264 1 352 335
265 1 640 642
266 1 640 624
267 1 733 567
268 1 733 92
269 1 238 474
270 1 238 204
271 1 469 93
272 1 469 53
273 1 49 659
274 1 49 476
275 1 559 356
276 1 559 306
277 1 316 56
278 1 316 647
279 1 373 534
280 1 373 122
281 1 211 257
282 1 211 566
283 1 484 245
284 1 484 699
285 1 46 308
286 1 46 611
287 1 175 231
288 1 175 95
289 1 637 377
290 1 637 311
291 1 19 603
292 1 19 293
293 1 64 720
294 1 64 740
295 1 673 224
296 1 673 545
297 1 343 323
298 1 343 723
299 1 760 66
300 1 760 593
301 1 244 557
302 1 244 140
303 1 445 606
304 1 445 494
305 1 538 179
306 1 538 255
307 1 205 462
308 1 205 347
309 1 427 357
310 1 427 452
311 1 631 758
312 1 631 216
313 2 406 36
314 2 406 515
315 2 406 80
316 1 328 299
317 1 328 354
318 1 727 707
319 1 727 42
320 1 523 338
321 1 523 761
322 1 70 72
323 1 70 180
324 1 262 485
325 1 262 203
326 1 487 522
327 1 487 131
328 1 370 212
329 1 370 671
330 1 223 693
331 1 223 695
332 1 163 281
333 1 163 711
334 1 568 278
335 1 568 483
336 1 571 686
337 1 571 35
338 1 649 59
339 1 649 641
340 1 106 294
341 1 106 410
342 1 472 23
343 1 472 186
344 1 577 44
345 1 577 525
346 1 52 150
347 1 52 729
348 1 79 242
349 1 79 168
350 1 142 248
351 1 142 51
352 1 592 717
353 1 592 734
354 1 322 320
355 1 322 200
356 1 91 102
357 1 91 75
358 1 16 6
359 1 16 521
360 1 157 546
361 1 157 570
362 1 442 219
363 1 442 374
364 1 748 65
365 1 748 749
366 1 466 314
367 1 466 126
368 1 112 318
369 1 112 413
370 1 700 282
371 1 700 384
372 1 655 11
373 1 655 105
374 1 214 239
375 1 214 336
376 1 58 240
377 1 58 60
378 1 67 303
379 1 67 675
380 1 598 288
381 1 598 383
382 1 628 350
383 1 628 134
384 1 220 114
385 1 220 225
386 1 31 563
387 1 31 173
388 1 130 171
389 1 130 542
390 1 184 750
391 1 184 138
392 1 712 237
393 1 712 434
394 1 460 585
395 1 460 738
396 1 103 668
397 1 103 32
398 1 319 78
399 1 319 428
400 1 601 767
401 1 601 201
402 1 439 617
403 1 439 30
404 1 742 744
405 1 742 276
406 1 136 533
407 1 136 438
408 1 292 710
409 1 292 401
410 1 73 162
411 1 73 746
412 1 307 480
413 1 307 15
414 1 499 197
415 1 499 504
416 1 709 101
417 1 709 213
418 1 553 270
419 1 553 569
420 1 421 267
421 1 421 579
422 1 337 110
423 1 337 449
424 1 691 57
425 1 691 9
426 1 172 353
427 1 172 645
428 1 610 5
429 1 610 339
430 1 679 234
431 1 679 497
432 1 313 453
433 1 313 762
434 1 493 614
435 1 493 359
436 1 736 702
437 1 736 737
438 1 490 632
439 1 490 405
440 1 697 249
441 1 697 552
442 1 382 266
443 1 382 741
444 1 82 108
445 1 82 543
446 1 7 263
447 1 7 18
448 1 10 87
449 1 10 3
450 1 304 368
451 1 304 27
452 1 94 348
453 1 94 324
454 1 391 207
455 1 391 756
456 1 277 768
457 1 277 461
458 1 508 222
459 1 508 635
460 1 412 83
461 1 412 719
462 1 379 69
463 1 379 236
464 1 160 305
465 1 160 446
466 1 115 120
467 1 115 332
468 1 283 708
469 1 283 191
470 1 97 153
471 1 97 99
472 1 385 437
473 1 385 612
474 1 514 572
475 1 514 582
476 1 265 705
477 1 265 423
478 1 715 467
479 1 715 716
480 1 415 491
481 1 415 33
482 1 706 390
483 1 706 156
484 1 331 176
485 1 331 486
486 1 409 769
487 1 409 8
488 1 457 327
489 1 457 230
490 1 340 605
491 1 340 555
492 1 562 602
493 1 562 564
494 1 127 26
495 1 127 665
496 1 346 104
497 1 346 90
498 1 76 495
499 1 76 399
500 1 301 365
501 1 301 683
502 1 757 764
503 1 757 618
504 1 325 609
505 1 325 167
506 1 22 473
507 1 22 584
508 1 232 89
509 1 232 137
510 1 361 195
511 1 361 747
512 1 502 443
513 1 502 39

Angles

1 1 38 310 345
2 1 251 124 387
3 1 317 574 725
4 1 755 694 498
5 1 54 718 194
6 1 144 217 174
7 1 218 253 548
8 1 530 688 402
9 1 209 661 362
10 1 654 295 660
11 1 420 721 731
12 1 506 190 450
13 1 488 241 597
14 1 272 100 666
15 1 638 517 662
16 1 125 616 672
17 1 587 664 576
18 1 143 139 300
19 1 678 193 560
20 1 275 25 663
21 1 492 724 393
22 1 447 448 269
23 1 371 463 161
24 1 684 358 360
25 1 395 763 468
26 1 459 526 128
27 1 512 583 77
28 1 50 685 375
29 1 185 535 516
30 1 561 166 753
31 1 536 418 765
32 1 159 556 500
33 1 726 226 689
34 1 650 475 243
35 1 333 703 389
36 1 653 595 96
37 1 698 28 455
38 1 29 550 551
39 1 210 670 149
40 1 165 652 651
41 1 285 424 182
42 1 398 235 24
43 1 404 247 489
44 1 690 433 366
45 1 273 646 378
46 1 12 55 444
47 1 284 37 381
48 1 170 481 636
49 1 464 613 258
50 1 627 622 411
51 1 135 133 287
52 1 84 565 578
53 1 594 259 132
54 1 344 271 648
55 1 425 400 687
56 1 228 61 147
57 1 479 754 21
58 1 732 202 735
59 1 68 196 290
60 1 728 268 119
61 1 71 208 386
62 1 630 766 524
63 1 696 604 680
64 1 470 589 713
65 1 549 634 177
66 1 639 250 291
67 1 759 667 539
68 1 669 169 309
69 1 714 682 396
70 1 426 355 392
71 1 215 145 573
72 1 372 85 456
73 1 380 178 540
74 1 416 274 20
75 1 206 199 2
76 1 321 532 531
77 1 620 496 146
78 1 429 547 752
79 1 408 364 183
80 1 260 154 297
81 1 296 511 518
82 1 221 349 422
83 1 261 478 503
84 1 435 229 537
85 1 227 505 155
86 1 62 730 302
87 1 315 286 14
88 1 74 676 414
89 1 233 121 111
90 1 599 745 188
91 1 626 625 407
92 1 600 148 692
93 1 189 580 513
94 1 644 289 363
95 1 621 541 633
96 1 63 334 501
97 1 701 607 588
98 1 458 451 279
99 1 477 529 351
100 1 623 586 432
101 1 252 394 164
102 1 312 376 41
103 1 590 739 507
104 1 342 256 519
105 1 677 88 681
106 1 596 280 440
107 1 509 430 326
108 1 17 109 591
109 1 98 13 329
110 1 431 1 129
111 1 264 403 615
112 1 581 751 81
113 1 657 643 254
114 1 158 181 123
115 1 369 367 656
116 1 341 298 198
117 1 674 151 152
118 1 482 520 117
119 1 575 658 246
120 1 86 619 48
121 1 330 454 141
122 1 192 397 417
123 1 527 436 441
124 1 465 187 608
125 1 419 40 510
126 1 743 118 471
127 1 704 4 116
128 1 528 544 558
129 1 113 34 107
130 1 45 388 554
131 1 722 43 47
132 1 629 352 335
133 1 642 640 624
134 1 567 733 92
135 1 474 238 204
136 1 93 469 53
137 1 659 49 476
138 1 356 559 306
139 1 56 316 647
140 1 534 373 122
141 1 257 211 566
142 1 245 484 699
143 1 308 46 611
144 1 231 175 95
145 1 377 637 311
146 1 603 19 293
147 1 720 64 740
148 1 224 673 545
149 1 323 343 723
150 1 66 760 593
151 1 557 244 140
152 1 606 445 494
153 1 179 538 255
154 1 462 205 347
155 1 357 427 452
156 1 758 631 216
157 2 36 406 515
158 2 36 406 80
159 2 515 406 80
160 1 299 328 354
161 1 707 727 42
162 1 338 523 761
163 1 72 70 180
164 1 485 262 203
165 1 522 487 131
166 1 212 370 671
167 1 693 223 695
168 1 281 163 711
169 1 278 568 483
170 1 686 571 35
171 1 59 649 641
172 1 294 106 410
173 1 23 472 186
174 1 44 577 525
175 1 150 52 729
176 1 242 79 168
177 1 248 142 51
178 1 717 592 734
179 1 320 322 200
180 1 102 91 75
181 1 6 16 521
182 1 546 157 570
183 1 219 442 374
184 1 65 748 749
185 1 314 466 126
186 1 318 112 413
187 1 282 700 384
188 1 11 655 105
189 1 239 214 336
190 1 240 58 60
191 1 303 67 675
192 1 288 598 383
193 1 350 628 134
194 1 114 220 225
195 1 563 31 173
196 1 171 130 542
197 1 750 184 138
198 1 237 712 434
199 1 585 460 738
200 1 668 103 32
201 1 78 319 428
202 1 767 601 201
203 1 617 439 30
204 1 744 742 276
205 1 533 136 438
206 1 710 292 401
207 1 162 73 746
208 1 480 307 15
209 1 197 499 504
210 1 101 709 213
211 1 270 553 569
212 1 267 421 579
213 1 110 337 449
214 1 57 691 9
215 1 353 172 645
216 1 5 610 339
217 1 234 679 497
218 1 453 313 762
219 1 614 493 359
220 1 702 736 737
221 1 632 490 405
222 1 249 697 552
223 1 266 382 741
224 1 108 82 543
225 1 263 7 18
226 1 87 10 3
227 1 368 304 27
228 1 348 94 324
229 1 207 391 756
230 1 768 277 461
231 1 222 508 635
232 1 83 412 719
233 1 69 379 236
234 1 305 160 446
235 1 120 115 332
236 1 708 283 191
237 1 153 97 99
238 1 437 385 612
239 1 572 514 582
240 1 705 265 423
241 1 467 715 716
242 1 491 415 33
243 1 390 706 156
244 1 176 331 486
245 1 769 409 8
246 1 327 457 230
247 1 605 340 555
248 1 602 562 564
249 1 26 127 665
250 1 104 346 90
251 1 495 76 399
252 1 365 301 683
253 1 764 757 618
254 1 609 325 167
255 1 473 22 584
256 1 89 232 137
257 1 195 361 747
258 1 443 502 39
